%nprocshared=8
%mem=8GB
%chk=crest_cf_result-005-opt.chk
# opt freq 6-31G(d) scrf=(smd,solvent=generic,read) nosymm em=gd3bj pbe1pbe 

crest_cf_result-005-opt

0 1
Pd                    0    0.5637251869  -0.5950276132  0.9689834408
P                    0    -0.1408371603  0.8254300958  -0.8503386789
O                    0    0.8721935371  0.5153193077  3.7610405585
S                    0    0.1201817639  1.3603787838  2.8377642148
N                    0    -1.5777455400  0.9634003877  3.0434839576
C                    0    -2.0506266123  0.5534733968  1.7186488948
H                    0    -1.2807918571  -0.1271067895  1.2587761193
C                    0    -2.1979924345  1.7841968364  0.8438590163
C                    0    -1.4613478118  2.0081769552  -0.3256078216
C                    0    -3.3546759779  -0.2002458769  1.6828869830
C                    0    -1.8123341153  0.0221459086  4.1161755661
C                    0    -0.7579472302  0.1863380988  -2.5036832965
C                    0    1.2938827361  1.9018498853  -1.3580747259
C                    0    -3.3947619897  3.8514938095  0.4822930188
C                    0    -2.7185359167  4.0677527905  -0.7086137711
C                    0    -1.7492064752  3.1339133553  -1.1134691651
C                    0    -3.1484581349  2.7177211359  1.2285198766
C                    0    0.1356279091  3.0130355414  3.7458289634
C                    0    1.6061661461  3.4096643225  3.7199337029
C                    0    -0.7175530549  4.0044874317  2.9816306783
C                    0    -0.3482175945  2.8129715309  5.1681630988
C                    0    -4.4239409187  0.0515243805  2.5344665079
C                    0    -5.6035531298  -0.6571717968  2.4138571198
C                    0    -5.7564794747  -1.6392138377  1.4386971173
C                    0    -4.6844740633  -1.8921995197  0.5858579605
C                    0    -3.5073157072  -1.1838980149  0.7098120507
H                    0    -4.1444316442  4.5482150523  0.8199879600
H                    0    -3.7165096440  2.5524550213  2.1288981653
H                    0    1.9476044886  3.5404986938  2.6951735264
H                    0    2.2025539288  2.6275973429  4.1846474437
H                    0    1.7673414150  4.3400851278  4.2631153232
H                    0    -0.5970070226  5.0064440449  3.3929690113
H                    0    -1.7651918388  3.7267336920  3.0428633157
H                    0    -0.4325361821  4.0256021820  1.9310703570
H                    0    -1.4110508519  2.5880379606  5.1820018710
H                    0    -0.1723752315  3.7085193812  5.7636282161
H                    0    0.1942440331  1.9856420820  5.6209996109
H                    0    -4.3337896862  0.7949336102  3.3108685303
H                    0    -2.6796920176  -1.3974105620  0.0433507436
H                    0    -6.4137233977  -0.4606423016  3.1011362336
H                    0    -4.7828355176  -2.6399020554  -0.1880015159
H                    0    -2.1103761222  -0.9635868892  3.7488819281
H                    0    -0.8861756082  -0.0908009189  4.6843758368
H                    0    -2.5868606181  0.3939488326  4.7899798233
C                    0    1.7705475346  2.6561439501  -0.1207155059
C                    0    2.4006386471  0.9946679477  -1.8917182809
H                    0    1.0104685138  2.6027553333  -2.1417615051
C                    0    3.0473079143  3.4390189864  -0.4050433302
H                    0    1.9617355637  1.9232288942  0.6738039728
H                    0    0.9812348099  3.3339107105  0.2217243830
C                    0    3.6792591816  1.7826474865  -2.1579872344
H                    0    2.5989360840  0.2177469386  -1.1463585387
H                    0    2.0763908758  0.5194657107  -2.8203117436
C                    0    4.1410487510  2.4964976642  -0.8933498883
H                    0    3.3749063808  3.9577196134  0.4993724422
H                    0    2.8505809630  4.1920154235  -1.1731888974
H                    0    4.4597180927  1.1027940510  -2.5053918926
H                    0    3.4961398978  2.5181265881  -2.9467771845
H                    0    5.0576790045  3.0559272136  -1.0919860882
H                    0    4.3556326824  1.7560407302  -0.1203258811
C                    0    -7.0116310191  -2.3940155847  1.3198605507
C                    0    -6.9959102111  -3.7663343071  1.0810029983
C                    0    -8.2413689831  -1.7522333833  1.4479972826
C                    0    -8.1770437073  -4.4767931605  0.9774131477
H                    0    -6.0497456356  -4.2814405103  0.9980231463
C                    0    -9.4215651899  -2.4632995806  1.3388313656
H                    0    -8.2694517406  -0.6849249572  1.6140857434
C                    0    -9.3937419256  -3.8280281789  1.1050394478
H                    0    -8.1491135446  -5.5420307040  0.7988373954
H                    0    -10.3680771006  -1.9511796238  1.4351702084
H                    0    -10.3162571367  -4.3834636659  1.0229687538
O                    0    -2.9664292748  5.1326131663  -1.5381747648
C                    0    -3.9172114415  6.0881827315  -1.1378425708
H                    0    -3.9272591963  6.8358164325  -1.9297300449
H                    0    -4.9153827267  5.6490034479  -1.0439987303
H                    0    -3.6367488136  6.5659201060  -0.1936933711
O                    0    -1.1026102642  3.1910216689  -2.3085470710
C                    0    -0.7511131454  4.4414197605  -2.8895691889
H                    0    -1.6106175322  4.8576350277  -3.4305701936
H                    0    -0.4506881031  5.1531616538  -2.1131889783
C                    0    0.3862636468  4.1975069529  -3.8465683132
C                    0    1.5539601233  4.9445073774  -3.7794938761
C                    0    0.2741180319  3.1963563253  -4.8043692136
C                    0    2.5986565466  4.6882866680  -4.6512864611
H                    0    1.6473719811  5.7289528905  -3.0415529583
C                    0    1.3222033786  2.9326610976  -5.6664053880
H                    0    -0.6382914987  2.6217207630  -4.8566689582
C                    0    2.4875170157  3.6778541529  -5.5907991567
H                    0    3.5047041037  5.2730589359  -4.5897906516
H                    0    1.2312093510  2.1458772171  -6.4007553644
H                    0    3.3074657087  3.4710242250  -6.2622050584
C                    0    -0.3129525582  -1.2729877933  -2.5998570497
C                    0    -2.2708825854  0.2750325025  -2.6909956358
H                    0    -0.2658306693  0.7755494952  -3.2842933195
C                    0    -0.7222729139  -1.9020861125  -3.9251269854
H                    0    -0.7700863603  -1.8344951681  -1.7788663340
H                    0    0.7703124833  -1.3393919111  -2.4772274263
C                    0    -2.6767374262  -0.3468704788  -4.0264745718
H                    0    -2.7805699049  -0.2491279502  -1.8790432597
H                    0    -2.5957107334  1.3145557370  -2.6674280310
C                    0    -2.2324241621  -1.8035370685  -4.1091418919
H                    0    -0.4042843238  -2.9451778120  -3.9366319289
H                    0    -0.2214692218  -1.3821363297  -4.7456944450
H                    0    -3.7607477295  -0.2772923796  -4.1461099826
H                    0    -2.2145887264  0.2158045583  -4.8415887204
H                    0    -2.5234914298  -2.2287532072  -5.0721552574
H                    0    -2.7323832567  -2.3785340312  -3.3261246976
C                    0    2.6906502811  -0.4999626553  1.2540478053
H                    0    2.8670343785  0.1300327340  2.1318626170
C                    0    3.6927868617  -1.1472973557  0.6737138021
H                    0    3.5144597434  -1.7805428835  -0.1929225105
C                    0    5.1081909266  -1.0816426476  1.0494235361
C                    0    6.0612050586  -1.6793174342  0.2201910478
C                    0    7.4026747853  -1.6387183514  0.5256622911
C                    0    7.8444645717  -0.9964778035  1.6820227681
C                    0    6.9094432886  -0.3992088247  2.5185023233
C                    0    5.5644395550  -0.4447354129  2.2006274737
H                    0    5.7382996030  -2.1811807614  -0.6816713859
H                    0    8.1365346555  -2.1008234334  -0.1165716519
H                    0    7.2143130123  0.1026885495  3.4241881600
H                    0    4.8578643686  0.0184974509  2.8727657082
O                    0    9.1968142970  -1.0148653909  1.8970368949
C                    0    9.6952822706  -0.3911358914  3.0518178439
H                    0    9.3002018532  -0.8532269626  3.9632024408
H                    0    10.7754444235  -0.5280069418  3.0201851108
H                    0    9.4680630477  0.6805587094  3.0625065394
C                    0    0.6307633168  -2.3172475309  2.4093158708
H                    0    1.6318222446  -2.7267678457  2.3382825279
H                    0    0.4074716317  -1.7884183335  3.3292078755
C                    0    -0.3756642147  -2.8003560152  1.6286837451
H                    0    -1.4143317070  -2.6087174538  1.9009274368
C                    0    1.3584573959  -4.6489493167  -1.3706643418
C                    0    1.5297296293  -6.1006242850  -0.8896326416
C                    0    1.8504727673  -7.0376952344  -2.0513220364
C                    0    3.1231528177  -6.5885831887  -2.7598842482
C                    0    2.9471842453  -5.1647660837  -3.2751973797
C                    0    2.6215948360  -4.2140329582  -2.1280106963
H                    0    1.9620077305  -8.0585397727  -1.6790533064
H                    0    2.3393256647  -6.1357881472  -0.1587730837
H                    0    0.6140460042  -6.4344627293  -0.3932244363
H                    0    3.9626535359  -6.6247404260  -2.0610952023
H                    0    3.3459661893  -7.2626206398  -3.5895857013
H                    0    3.8559876965  -4.8301414034  -3.7794055328
H                    0    2.1276814725  -5.1385903938  -3.9948933143
H                    0    3.4548772712  -4.1827440324  -1.4241122923
H                    0    2.4595610906  -3.2090327325  -2.5203486946
H                    0    1.0229121880  -7.0248134298  -2.7642017424
C                    0    1.1567838817  -3.7022495525  -0.1683604608
H                    0    1.2376184489  -2.6583454827  -0.5101721101
H                    0    1.9693686361  -3.8877376192  0.5342646139
C                    0    -0.1853462085  -3.8407082770  0.5528992564
H                    0    -0.2648036270  -4.8294836171  1.0232826765
H                    0    -1.0036191765  -3.7548093071  -0.1697322147
O                    0    0.2804917455  -4.5574738822  -2.2889481088
H                    0    -0.4937940814  -4.9612164623  -1.8835933482

eps=3.06095
epsinf=1.36375
HBondAcidity=0.00
HBondBasicity=0.205
SurfaceTensionAtInterface=24.855
CarbonAromaticity=0.000
ElectronegativeHalogenicity=0.000


