%nprocshared=8
%mem=8GB
%chk=crest_cf_result-004-opt.chk
# opt freq 6-31G(d) scrf=(smd,solvent=generic,read) nosymm em=gd3bj pbe1pbe 

crest_cf_result-004-opt

0 1
Pd                    0    0.6479909335  -0.5452103085  1.1729125364
P                    0    0.1453297619  0.9912850045  -0.5994667359
O                    0    0.7964699980  0.4669953549  3.9166903460
S                    0    0.0480969313  1.3828252624  3.0585764865
N                    0    -1.6396501224  0.9140178952  3.1360827399
C                    0    -2.0111400418  0.5677665844  1.7621538939
H                    0    -1.2071297686  -0.0951851616  1.3284465126
C                    0    -2.0953696814  1.8336496400  0.9284062025
C                    0    -1.2698234669  2.1025057774  -0.1703618474
C                    0    -3.3110068635  -0.1787106439  1.6148151147
C                    0    -1.9017628722  -0.1046877830  4.1301354981
C                    0    -0.2351346563  0.4749521588  -2.3609319688
C                    0    1.5492678488  2.2078590006  -0.8043126494
C                    0    -3.2823758255  3.9020393553  0.5412623067
C                    0    -2.4917836836  4.1801652999  -0.5633065662
C                    0    -1.5153564124  3.2456508500  -0.9494270996
C                    0    -3.1003526717  2.7336338373  1.2514357334
C                    0    -0.0634460773  2.9263964558  4.1370704452
C                    0    1.3833006997  3.3839032033  4.2661011984
C                    0    -0.9137041776  3.9533409584  3.4161432594
C                    0    -0.6309682883  2.5657087523  5.4959782464
C                    0    -4.4223858748  0.0345799529  2.4226231041
C                    0    -5.5932761302  -0.6666934806  2.2106344606
C                    0    -5.6983394581  -1.5962096345  1.1788152718
C                    0    -4.5836513484  -1.8109823581  0.3709791946
C                    0    -3.4121122996  -1.1179677332  0.5930482074
H                    0    -4.0510042281  4.5905533179  0.8521153921
H                    0    -3.7529489854  2.5223047777  2.0820314358
H                    0    1.7841168104  3.6680198368  3.2963953617
H                    0    1.9865205821  2.5706730985  4.6639114852
H                    0    1.4612348190  4.2373875457  4.9386222517
H                    0    -0.5435323983  4.1215269421  2.4060625143
H                    0    -0.8991959460  4.9026614405  3.9508336911
H                    0    -1.9407469936  3.6077269630  3.3463125605
H                    0    -1.6858503659  2.3191628983  5.4192045170
H                    0    -0.5181060677  3.3983855304  6.1900133532
H                    0    -0.0934435878  1.7091352589  5.8972081777
H                    0    -4.3721080127  0.7449835465  3.2330804785
H                    0    -2.5464466978  -1.3111483359  -0.0288385841
H                    0    -6.4489353347  -0.4748097550  2.8418073385
H                    0    -4.6308839121  -2.5470704301  -0.4186238718
H                    0    -2.6981258455  0.2149128206  4.8052510082
H                    0    -2.1871742110  -1.0594035649  3.6824778987
H                    0    -0.9929938575  -0.2613383539  4.7160436538
C                    0    1.9190390200  2.7229140123  0.5840443139
C                    0    2.7451830440  1.5151272179  -1.4533642868
H                    0    1.2302841281  3.0449643266  -1.4244203984
C                    0    3.1419906997  3.6328311895  0.5356454091
H                    0    2.1337256190  1.8613851306  1.2283292040
H                    0    1.0645846187  3.2624390070  1.0055327157
C                    0    3.9664318558  2.4299539477  -1.4849910613
H                    0    2.9837196838  0.6204316521  -0.8721792735
H                    0    2.4964834859  1.2199432565  -2.4747386719
C                    0    4.3241498655  2.8917242624  -0.0780178295
H                    0    3.3958078328  3.9687932474  1.5438463028
H                    0    2.9164587526  4.5194431358  -0.0639691448
H                    0    4.8096008967  1.8948009535  -1.9266560677
H                    0    3.7579345364  3.3025290917  -2.1109413940
H                    0    5.2017359668  3.5413189301  -0.1067555811
H                    0    4.5658626807  2.0209269938  0.5342101950
C                    0    -6.9481000945  -2.3341624218  0.9510424792
C                    0    -7.6916274706  -2.8239174409  2.0226125237
C                    0    -7.4139837867  -2.5577370645  -0.3429334957
C                    0    -8.8665426083  -3.5188237886  1.8054323561
H                    0    -7.3331747733  -2.6759997313  3.0311200024
C                    0    -8.5916849591  -3.2484758703  -0.5578809608
H                    0    -6.8578052703  -2.1677233504  -1.1832215011
C                    0    -9.3215924623  -3.7323451662  0.5149707114
H                    0    -9.4294512258  -3.8979016883  2.6461480288
H                    0    -8.9436703730  -3.4088955002  -1.5667892882
H                    0    -10.2407293529  -4.2736463316  0.3461976337
O                    0    -2.5976393788  5.3306848932  -1.3039320488
C                    0    -3.5744247358  6.2745331958  -0.9407717141
H                    0    -3.4725577421  7.0874948459  -1.6582696541
H                    0    -4.5845249996  5.8577956068  -1.0086579438
H                    0    -3.4051822277  6.6611641914  0.0691051429
O                    0    -0.7432188557  3.3936097307  -2.0620131615
C                    0    -1.2771399529  4.0102452614  -3.2266912530
H                    0    -2.3493220638  3.8046227532  -3.3132435066
H                    0    -1.1375897620  5.0984315784  -3.1686205158
C                    0    -0.5507748460  3.4662080048  -4.4293216493
C                    0    0.8356027056  3.3722241192  -4.4269651287
C                    0    -1.2533334190  3.0473404166  -5.5507299817
C                    0    1.5054795261  2.8449953007  -5.5160460900
H                    0    1.3877339376  3.7066163067  -3.5626123239
C                    0    -0.5817086509  2.5356523786  -6.6485878643
H                    0    -2.3316698372  3.1211130724  -5.5661911236
C                    0    0.7976678432  2.4239066309  -6.6294551955
H                    0    2.5822790780  2.7635369006  -5.4957437403
H                    0    -1.1393124756  2.2124269458  -7.5153500121
H                    0    1.3194204361  2.0113572615  -7.4800990531
C                    0    0.4575720693  -0.8641240977  -2.6089842565
C                    0    -1.7290470496  0.3129800503  -2.6302363364
H                    0    0.1734163024  1.2326866410  -3.0360654128
C                    0    0.2515279416  -1.3254615975  -4.0464747357
H                    0    0.0332830262  -1.6130775945  -1.9348176837
H                    0    1.5236467950  -0.7846717506  -2.3882044237
C                    0    -1.9592985036  -0.1523072726  -4.0664436206
H                    0    -2.1459818733  -0.4259250946  -1.9420012220
H                    0    -2.2591990845  1.2515869589  -2.4622635230
C                    0    -1.2376721161  -1.4679964837  -4.3373171273
H                    0    0.7453387380  -2.2866410801  -4.1921006414
H                    0    0.6930505828  -0.5987913187  -4.7340652908
H                    0    -3.0313974915  -0.2690482989  -4.2456863816
H                    0    -1.5843949631  0.6097289954  -4.7533439213
H                    0    -1.3912571543  -1.7684941974  -5.3759954951
H                    0    -1.6472842566  -2.2523495278  -3.6977263301
C                    0    2.7744302876  -0.5584387346  1.4564069901
H                    0    3.0072295989  -0.0650456923  2.4057632386
C                    0    3.7313667287  -1.1247789040  0.7318688242
H                    0    3.4859904775  -1.6497063163  -0.1895427603
C                    0    5.1683828569  -1.1257368102  1.0191977622
C                    0    6.0315304996  -1.8232950035  0.1695187474
C                    0    7.3896113784  -1.8486602297  0.3910944991
C                    0    7.9408740111  -1.1683519808  1.4765547008
C                    0    7.0976851487  -0.4641553136  2.3271825122
C                    0    5.7344374123  -0.4476299286  2.0957805989
H                    0    5.6232492101  -2.3551178846  -0.6790173804
H                    0    8.0532366224  -2.3906360517  -0.2649911580
H                    0    7.4890259637  0.0769039003  3.1752503138
H                    0    5.1024073314  0.1068063021  2.7733193915
O                    0    9.3010497429  -1.2562797166  1.6093095131
C                    0    9.9075858254  -0.5989454193  2.6914102699
H                    0    9.7476536445  0.4840317811  2.6476537306
H                    0    9.5422410517  -0.9795280320  3.6515590810
H                    0    10.9732736309  -0.8073320924  2.6055942517
C                    0    0.6373456508  -2.3457688439  2.5091155398
H                    0    1.6209420030  -2.7897157712  2.4037576147
H                    0    0.4383301066  -1.8718306055  3.4637945909
C                    0    -0.3936094137  -2.7439246552  1.7109524627
H                    0    -1.4225394273  -2.5351837777  2.0046159560
C                    0    1.2438831546  -4.5039338404  -1.3894303281
C                    0    1.2388260377  -6.0049658716  -1.0528072749
C                    0    1.4835070273  -6.8566166136  -2.2960696859
C                    0    2.8161013762  -6.4885101489  -2.9382256574
C                    0    2.8138656425  -5.0103647195  -3.3108175180
C                    0    2.5682080028  -4.1450232755  -2.0790906220
H                    0    1.4715519750  -7.9143985023  -2.0238314003
H                    0    2.0202140052  -6.2023371513  -0.3170210291
H                    0    0.2792475522  -6.2789417416  -0.6047015612
H                    0    3.6283944036  -6.6884056238  -2.2350312371
H                    0    2.9825977899  -7.0992257044  -3.8280186462
H                    0    3.7664134994  -4.7339807535  -3.7673016365
H                    0    2.0203573447  -4.8219112848  -4.0357825000
H                    0    3.3800228236  -4.2789747964  -1.3622541122
H                    0    2.5310913198  -3.0949687577  -2.3708267429
H                    0    0.6813844027  -6.6832363844  -3.0171774830
C                    0    1.1138325336  -3.6605591504  -0.1028115497
H                    0    1.3162644984  -2.6049945688  -0.3404448316
H                    0    1.8802290523  -3.9996458201  0.5945124028
C                    0    -0.2589193701  -3.7184420276  0.5683642935
H                    0    -0.4507275095  -4.7256730607  0.9613465852
H                    0    -1.0385009097  -3.5029548480  -0.1703716856
O                    0    0.2057974114  -4.1984665760  -2.3081494262
H                    0    -0.6054534428  -4.6073709324  -1.9898104023

eps=3.06095
epsinf=1.36375
HBondAcidity=0.00
HBondBasicity=0.205
SurfaceTensionAtInterface=24.855
CarbonAromaticity=0.000
ElectronegativeHalogenicity=0.000


