%nprocshared=8
%mem=8GB
%chk=xtbscan-opt.chk
# opt freq 6-31G(d) scrf=(smd,solvent=generic,read) nosymm em=gd3bj pbe1pbe 

xtbscan-opt

0 1
Pd                    0    -0.881291  -1.893269  -0.211488
C                    0    -2.072077  -3.040563  0.820841
C                    0    -2.930595  -3.983960  0.240902
C                    0    -3.882783  -4.649152  1.015642
C                    0    -3.001468  2.830722  -4.062814
C                    0    -4.000995  1.900882  -3.786118
C                    0    -3.840666  1.005620  -2.727182
C                    0    -2.681926  1.004558  -1.938443
C                    0    -1.669176  1.945137  -2.219514
C                    0    -1.851708  2.849902  -3.277404
P                    0    -2.556351  -0.181353  -0.518065
C                    0    -0.339158  1.986238  -1.478375
N                    0    0.649520  1.282462  -2.327153
S                    0    1.669886  0.100686  -1.706249
C                    0    3.020800  1.013731  -0.795593
C                    0    2.486167  1.719223  0.443066
C                    0    3.984299  -0.117537  -0.411645
C                    0    3.676452  1.969066  -1.787493
O                    0    0.955337  -0.652863  -0.552699
C                    0    0.097726  3.405417  -1.185225
C                    0    0.913204  4.095658  -2.074608
C                    0    1.305229  5.412598  -1.784406
C                    0    0.871359  6.027269  -0.616730
C                    0    0.038766  5.328625  0.271457
C                    0    -0.351610  4.019189  -0.005724
C                    0    2.587527  7.379709  -2.458585
H                    0    -3.114936  3.539629  -4.874428
H                    0    -4.910399  1.875819  -4.375010
H                    0    -4.641513  0.311098  -2.515807
H                    0    -1.081749  3.583126  -3.476642
H                    0    -0.431707  1.455434  -0.527899
H                    0    3.339795  2.092756  1.023819
H                    0    1.919439  1.028278  1.076774
H                    0    1.851712  2.568613  0.183553
H                    0    4.846517  0.323353  0.103017
H                    0    4.352487  -0.651625  -1.297131
H                    0    3.508852  -0.835258  0.266416
H                    0    4.599866  2.354242  -1.335873
H                    0    3.024034  2.815152  -2.010857
H                    0    3.944277  1.465270  -2.724010
H                    0    1.268341  3.632030  -2.983824
H                    0    -0.981966  3.463160  0.672748
H                    0    3.217843  7.635943  -3.311017
H                    0    3.171555  7.432146  -1.533476
H                    0    1.741348  8.072549  -2.399008
C                    0    -2.641670  0.913366  0.941204
C                    0    -1.677755  0.765885  1.943721
C                    0    -3.644510  1.881231  1.074422
C                    0    -1.730451  1.567915  3.092628
H                    0    -0.884246  0.032170  1.825371
C                    0    -3.702136  2.673050  2.222953
H                    0    -4.381623  2.013241  0.288421
C                    0    -2.749935  2.510725  3.236081
H                    0    -2.797569  3.126736  4.126514
C                    0    -4.145085  -1.086775  -0.573439
C                    0    -5.055008  -1.068748  0.483793
C                    0    -4.373272  -1.932161  -1.669695
C                    0    -6.193617  -1.882151  0.442006
H                    0    -4.882350  -0.436763  1.346959
C                    0    -5.522830  -2.719789  -1.722990
H                    0    -3.647750  -1.984892  -2.476767
C                    0    -6.435180  -2.699404  -0.663085
H                    0    -7.321420  -3.322443  -0.695994
H                    0    0.226976  0.905211  -3.172566
H                    0    1.155189  7.035495  -0.354022
O                    0    2.133818  6.008701  -2.722053
O                    0    -0.331009  6.034071  1.405842
C                    0    -1.190270  5.343521  2.375504
H                    0    -1.353795  6.067140  3.175171
H                    0    -2.144725  5.059561  1.923226
H                    0    -0.697056  4.450588  2.770887
C                    0    -4.014841  -4.363290  2.376376
H                    0    -4.757590  -4.883975  2.979548
C                    0    -3.207150  -3.377705  2.945788
H                    0    -3.317180  -3.117344  3.995464
C                    0    -2.259381  -2.704793  2.169936
H                    0    -1.661056  -1.926141  2.628836
H                    0    -4.486601  3.413420  2.329073
H                    0    -0.980268  1.451004  3.866605
H                    0    -6.889285  -1.870462  1.273354
H                    0    -5.695752  -3.361129  -2.579880
H                    0    -2.881443  -4.194388  -0.820554
H                    0    -4.537267  -5.377451  0.544348
C                    0    -0.118085  -4.781369  1.549556
H                    0    -1.141760  -5.149674  1.590031
H                    0    0.497578  -5.624979  1.206901
C                    0    0.382272  -4.364914  2.931843
H                    0    -0.161663  -3.501843  3.321276
H                    0    0.257969  -5.187291  3.643618
H                    0    1.447452  -4.108071  2.897955
C                    0    0.108811  -3.710987  0.484864
H                    0    1.038060  -3.173026  0.711248
C                    0    -0.111040  -3.870680  -0.884380
H                    0    -0.923318  -4.519434  -1.198787
C                    0    0.853828  -3.515928  -1.978783
H                    0    1.742015  -3.016590  -1.583725
H                    0    1.192841  -4.449816  -2.451359
C                    0    0.203783  -2.643454  -3.047097
O                    0    -1.010964  -2.424275  -3.081731
N                    0    1.081186  -2.069432  -3.903024
H                    0    2.089452  -2.254094  -3.798167
C                    0    0.858735  -0.916812  -4.683220
C                    0    2.056637  -0.217185  -5.041094
C                    0    -0.373557  -0.379366  -5.009201
C                    0    1.965754  1.032468  -5.714364
C                    0    -0.445720  0.858521  -5.697269
H                    0    -1.277018  -0.889529  -4.719136
C                    0    4.371223  -0.101828  -4.932072
C                    0    3.185195  1.708639  -5.989094
C                    0    0.687955  1.559327  -6.041801
H                    0    -1.424431  1.259821  -5.924934
C                    0    4.379922  1.145767  -5.599996
H                    0    5.305551  -0.552690  -4.617236
H                    0    3.155318  2.665945  -6.496425
H                    0    0.623880  2.514001  -6.550294
H                    0    5.322757  1.641626  -5.789919
N                    0    3.251496  -0.767718  -4.658497

eps=3.06095
epsinf=1.36375
HBondAcidity=0.00
HBondBasicity=0.205
SurfaceTensionAtInterface=24.855
CarbonAromaticity=0.000
ElectronegativeHalogenicity=0.000


