%nprocshared=8
%mem=8GB
%chk=IRC-13-function.chk
# genecp scrf=(smd,solvent=generic,read) nosymm em=gd3bj pbe1pbe 

IRC-13-function

0 1
Pd                    0    -0.902404  -0.463887  2.038187
P                    0    -0.656380  1.161075  0.378476
O                    0    1.758817  -4.238919  1.344461
S                    0    0.480477  -3.653821  0.784995
N                    0    0.751448  -2.987939  -0.760159
C                    0    0.956604  -1.524628  -0.715277
H                    0    0.706960  -1.208951  0.311115
C                    0    0.036566  -0.764360  -1.652463
C                    0    -0.426299  0.550530  -1.365513
C                    0    2.419318  -1.157401  -0.950359
C                    0    1.585492  -3.777657  -1.661823
C                    0    0.664983  2.413496  0.798219
C                    0    -2.236748  2.154122  0.403934
C                    0    -0.882901  -0.604538  -3.904265
C                    0    -1.236317  0.719414  -3.678457
C                    0    -0.955323  1.302286  -2.425215
C                    0    -0.221070  -1.311421  -2.904981
C                    0    -0.583057  -5.142472  0.382485
C                    0    -1.261265  -5.418965  1.727389
C                    0    -1.621765  -4.773592  -0.661393
C                    0    0.277997  -6.328399  -0.022856
C                    0    3.385494  -1.667346  -0.075983
C                    0    4.722892  -1.325008  -0.212966
C                    0    5.150334  -0.470712  -1.239524
C                    0    4.187491  0.000754  -2.138418
C                    0    2.845428  -0.339156  -1.997591
H                    0    -1.091909  -1.083786  -4.854387
H                    0    0.104674  -2.323609  -3.116433
H                    0    -1.882591  -4.572315  2.040378
H                    0    -0.524732  -5.626735  2.512005
H                    0    -1.909095  -6.298053  1.630857
H                    0    -2.327203  -5.606856  -0.773196
H                    0    -1.173165  -4.572657  -1.638020
H                    0    -2.196532  -3.895309  -0.360175
H                    0    -0.318625  -7.245075  0.058054
H                    0    1.145540  -6.417931  0.638759
H                    0    0.633396  -6.249763  -1.053584
H                    0    3.082153  -2.347901  0.715812
H                    0    2.123977  0.053080  -2.707499
H                    0    5.445342  -1.704331  0.504753
H                    0    4.492631  0.628498  -2.971647
H                    0    2.316848  -4.375468  -1.103971
H                    0    0.968567  -4.444301  -2.273717
H                    0    2.142664  -3.114801  -2.326550
C                    0    -3.432123  1.535651  -0.323534
C                    0    -2.602155  2.423165  1.870854
H                    0    -2.013444  3.106545  -0.084079
C                    0    -4.641392  2.466046  -0.237061
H                    0    -3.677441  0.571036  0.129933
H                    0    -3.196003  1.344485  -1.373939
C                    0    -3.807740  3.357010  1.960239
H                    0    -2.836713  1.465544  2.356581
H                    0    -1.753012  2.846355  2.421871
C                    0    -5.005111  2.779792  1.210984
H                    0    -5.493564  2.007639  -0.754775
H                    0    -4.415270  3.405080  -0.763972
H                    0    -4.061669  3.534538  3.013123
H                    0    -3.542905  4.333701  1.527979
H                    0    -5.854618  3.473580  1.252732
H                    0    -5.326444  1.852942  1.708948
C                    0    6.570454  -0.082306  -1.365909
C                    0    6.926301  1.205827  -1.788622
C                    0    7.595249  -0.988121  -1.059964
C                    0    8.262189  1.575779  -1.903645
H                    0    6.146267  1.931241  -2.005056
C                    0    8.931237  -0.618035  -1.173426
H                    0    7.341380  -1.999169  -0.752428
C                    0    9.271013  0.665266  -1.596340
H                    0    8.515838  2.582726  -2.224788
H                    0    9.710329  -1.338347  -0.937977
H                    0    10.314835  0.954205  -1.684435
O                    0    -1.866377  1.516918  -4.571550
C                    0    -2.209421  0.951891  -5.820598
H                    0    -2.716201  1.742064  -6.376999
H                    0    -1.319186  0.631084  -6.376136
H                    0    -2.890822  0.100407  -5.699165
O                    0    -1.291517  2.610113  -2.228246
C                    0    -0.535486  3.554605  -2.989356
H                    0    0.528539  3.467384  -2.732161
H                    0    -0.649395  3.339188  -4.057780
C                    0    -1.049969  4.926284  -2.665930
C                    0    -2.420634  5.143238  -2.506422
C                    0    -0.168772  5.999582  -2.528739
C                    0    -2.899822  6.414366  -2.204458
H                    0    -3.105070  4.306160  -2.607439
C                    0    -0.648689  7.274425  -2.237174
H                    0    0.900917  5.834167  -2.639827
C                    0    -2.015519  7.483545  -2.069804
H                    0    -3.967428  6.570733  -2.073103
H                    0    0.047919  8.101480  -2.128331
H                    0    -2.390479  8.475219  -1.831239
C                    0    1.983773  2.032395  0.124144
C                    0    0.309423  3.877341  0.532370
H                    0    0.771969  2.275529  1.883287
C                    0    3.122868  2.991562  0.459527
H                    0    1.836960  2.026030  -0.964403
H                    0    2.268109  1.011903  0.397333
C                    0    1.462193  4.811276  0.896508
H                    0    0.059339  4.014157  -0.523748
H                    0    -0.578460  4.169236  1.101789
C                    0    2.742369  4.435927  0.159043
H                    0    4.018012  2.695787  -0.102054
H                    0    3.381050  2.903428  1.523555
H                    0    1.172336  5.844922  0.668673
H                    0    1.642479  4.763075  1.980636
H                    0    3.559608  5.114527  0.434123
H                    0    2.584113  4.553748  -0.924244
C                    0    -2.132865  -1.404063  0.813190
H                    0    -1.703802  -1.657004  -0.161019
C                    0    -3.428290  -1.730906  0.980469
H                    0    -3.932407  -1.542072  1.930110
C                    0    -4.280173  -2.321432  -0.062148
C                    0    -5.431114  -3.048670  0.285081
C                    0    -6.236279  -3.639192  -0.675130
C                    0    -5.919369  -3.515278  -2.032463
C                    0    -4.792300  -2.778590  -2.405653
C                    0    -3.996830  -2.187555  -1.428166
H                    0    -5.687832  -3.161372  1.336605
H                    0    -7.120051  -4.206413  -0.396697
H                    0    -4.533198  -2.644292  -3.450849
H                    0    -3.137838  -1.598858  -1.739733
O                    0    -6.762718  -4.127955  -2.901458
C                    0    -6.466361  -4.025370  -4.274923
H                    0    -6.486666  -2.982212  -4.618019
H                    0    -5.487180  -4.462608  -4.512220
H                    0    -7.244205  -4.587084  -4.796402
O                    0    0.266196  0.462007  3.616521
C                    0    -1.541603  -1.692848  3.669347
H                    0    -1.182494  -2.706638  3.490227
H                    0    -2.623067  -1.570418  3.626530
C                    0    -0.835966  -0.907333  4.606752
H                    0    -1.371023  -0.086581  5.079939
C                    0    1.577921  0.156232  4.025189
C                    0    2.259038  -0.836643  3.074142
C                    0    3.719778  -1.106200  3.426627
C                    0    4.518505  0.192952  3.468193
C                    0    3.878175  1.201612  4.420084
C                    0    2.410765  1.446255  4.063233
H                    0    3.783425  -1.610486  4.400973
H                    0    1.689224  -1.772422  3.029877
H                    0    2.208340  -0.397854  2.068914
H                    0    5.558408  -0.001916  3.760472
H                    0    4.550121  0.620692  2.454969
H                    0    3.956331  0.831420  5.452179
H                    0    4.426571  2.152261  4.391269
H                    0    1.945877  2.150936  4.764838
H                    0    2.362922  1.906368  3.070591
H                    0    4.156392  -1.800011  2.698867
C                    0    1.428654  -0.414608  5.443162
H                    0    1.124765  0.403366  6.109852
H                    0    2.352540  -0.841958  5.844773
C                    0    0.325641  -1.452709  5.370660
H                    0    -0.033789  -1.719449  6.374365
H                    0    0.677340  -2.377217  4.898960

C H O N P S 0
def2tzvp
****
Pd 0
SDD
****

Pd 0
SDD

eps=3.06095
epsinf=1.36375
HBondAcidity=0.00
HBondBasicity=0.205
SurfaceTensionAtInterface=24.855
CarbonAromaticity=0.000
ElectronegativeHalogenicity=0.000



