%nprocshared=8
%mem=8GB
%chk=IRC-1-function.chk
# genecp scrf=(smd,solvent=generic,read) nosymm em=gd3bj pbe1pbe 

IRC-1-function

0 1
Pd                    0    -0.878968  -0.446652  2.070648
P                    0    -0.663250  1.151851  0.393255
O                    0    1.756638  -4.240079  1.348344
S                    0    0.480167  -3.655346  0.786362
N                    0    0.752521  -2.990790  -0.757598
C                    0    0.958685  -1.528031  -0.712483
H                    0    0.716034  -1.212931  0.315104
C                    0    0.034575  -0.770492  -1.646554
C                    0    -0.436159  0.538779  -1.352897
C                    0    2.420696  -1.160337  -0.951444
C                    0    1.586199  -3.780679  -1.659706
C                    0    0.664906  2.396687  0.810136
C                    0    -2.242154  2.142290  0.415230
C                    0    -0.879652  -0.604972  -3.899755
C                    0    -1.234802  0.717895  -3.670181
C                    0    -0.958361  1.297765  -2.413590
C                    0    -0.217862  -1.313422  -2.902152
C                    0    -0.583620  -5.143721  0.382686
C                    0    -1.263993  -5.423337  1.725639
C                    0    -1.621280  -4.775052  -0.662236
C                    0    0.278836  -6.328823  -0.022258
C                    0    3.387179  -1.669464  -0.076978
C                    0    4.723991  -1.325738  -0.213840
C                    0    5.150390  -0.470932  -1.240351
C                    0    4.187149  0.000012  -2.139120
C                    0    2.845257  -0.341153  -1.998365
H                    0    -1.085288  -1.080837  -4.852280
H                    0    0.113270  -2.323057  -3.117115
H                    0    -1.899221  -4.584610  2.031296
H                    0    -0.529158  -5.619510  2.514849
H                    0    -1.900519  -6.310634  1.629488
H                    0    -2.326594  -5.608352  -0.774441
H                    0    -1.171902  -4.574506  -1.638536
H                    0    -2.196637  -3.896739  -0.362292
H                    0    -0.317843  -7.245629  0.056069
H                    0    1.144898  -6.419220  0.641119
H                    0    0.636440  -6.248815  -1.052024
H                    0    3.084866  -2.348610  0.716248
H                    0    2.123201  0.051374  -2.707553
H                    0    5.446360  -1.703477  0.504702
H                    0    4.491666  0.628659  -2.971882
H                    0    2.316825  -4.379605  -1.102290
H                    0    0.968823  -4.445737  -2.272752
H                    0    2.144323  -3.117243  -2.322959
C                    0    -3.436974  1.532202  -0.319518
C                    0    -2.608040  2.416507  1.880097
H                    0    -2.007637  3.092117  -0.072722
C                    0    -4.641325  2.468900  -0.235890
H                    0    -3.690224  0.568223  0.130291
H                    0    -3.197006  1.342031  -1.369095
C                    0    -3.809287  3.356130  1.963655
H                    0    -2.849115  1.461256  2.367907
H                    0    -1.756642  2.833222  2.431791
C                    0    -5.006928  2.783056  1.211545
H                    0    -5.494063  2.014814  -0.756391
H                    0    -4.409196  3.407178  -0.761366
H                    0    -4.065331  3.536723  3.015399
H                    0    -3.538330  4.330712  1.530674
H                    0    -5.854238  3.479504  1.251740
H                    0    -5.332588  1.857081  1.708496
C                    0    6.570413  -0.082054  -1.366466
C                    0    6.926267  1.206089  -1.788987
C                    0    7.595156  -0.987860  -1.060255
C                    0    8.262192  1.576019  -1.903706
H                    0    6.146262  1.931634  -2.005064
C                    0    8.931159  -0.617798  -1.173404
H                    0    7.341232  -1.998809  -0.752476
C                    0    9.270970  0.665495  -1.596287
H                    0    8.515900  2.583064  -2.224483
H                    0    9.710194  -1.338041  -0.937559
H                    0    10.314802  0.954518  -1.684028
O                    0    -1.863402  1.516427  -4.563544
C                    0    -2.205979  0.953056  -5.814020
H                    0    -2.713008  1.744119  -6.368873
H                    0    -1.315514  0.633809  -6.369957
H                    0    -2.887054  0.101162  -5.693936
O                    0    -1.291642  2.606335  -2.217482
C                    0    -0.536110  3.550542  -2.982310
H                    0    0.527708  3.463857  -2.724908
H                    0    -0.651190  3.331892  -4.049728
C                    0    -1.050588  4.923240  -2.662437
C                    0    -2.421336  5.141689  -2.505503
C                    0    -0.168952  5.996470  -2.526447
C                    0    -2.900054  6.413528  -2.205631
H                    0    -3.106492  4.305140  -2.606343
C                    0    -0.648457  7.272125  -2.237475
H                    0    0.900771  5.830337  -2.635777
C                    0    -2.015254  7.482332  -2.071336
H                    0    -3.967697  6.570722  -2.075573
H                    0    0.048619  8.098825  -2.129078
H                    0    -2.389782  8.474475  -1.834076
C                    0    1.978884  2.022857  0.122618
C                    0    0.303100  3.860931  0.546819
H                    0    0.771617  2.232024  1.893084
C                    0    3.117656  2.985464  0.452767
H                    0    1.826950  2.018215  -0.965550
H                    0    2.270678  1.004301  0.393603
C                    0    1.456225  4.799048  0.902626
H                    0    0.045722  4.000416  -0.507571
H                    0    -0.579898  4.152597  1.123859
C                    0    2.733200  4.429469  0.157025
H                    0    4.009930  2.691895  -0.114656
H                    0    3.381971  2.895962  1.514627
H                    0    1.159831  5.831206  0.676082
H                    0    1.643605  4.751357  1.985297
H                    0    3.550100  5.109366  0.430111
H                    0    2.569363  4.549889  -0.925252
C                    0    -2.123774  -1.399619  0.829634
H                    0    -1.687245  -1.670423  -0.136481
C                    0    -3.425029  -1.715043  0.977821
H                    0    -3.948510  -1.502777  1.912707
C                    0    -4.273521  -2.316519  -0.063637
C                    0    -5.424469  -3.043432  0.285838
C                    0    -6.230468  -3.636125  -0.672527
C                    0    -5.915258  -3.513898  -2.030673
C                    0    -4.787684  -2.778606  -2.405648
C                    0    -3.990364  -2.186872  -1.429699
H                    0    -5.681701  -3.153272  1.337566
H                    0    -7.114120  -4.202494  -0.392102
H                    0    -4.529504  -2.645957  -3.451260
H                    0    -3.130691  -1.599500  -1.742244
O                    0    -6.759860  -4.126414  -2.897856
C                    0    -6.465776  -4.025487  -4.272398
H                    0    -6.486212  -2.982669  -4.616276
H                    0    -5.487333  -4.463656  -4.510632
H                    0    -7.244938  -4.587324  -4.791655
O                    0    0.351162  0.647957  3.416812
C                    0    -1.651644  -1.856759  3.711772
H                    0    -1.265052  -2.834753  3.433143
H                    0    -2.698997  -1.663063  3.506019
C                    0    -0.973009  -1.073394  4.599361
H                    0    -1.445284  -0.161738  4.959754
C                    0    1.567387  0.221123  3.948409
C                    0    2.270605  -0.800994  3.038076
C                    0    3.713221  -1.106811  3.434032
C                    0    4.540771  0.173833  3.485019
C                    0    3.916098  1.183638  4.444566
C                    0    2.464723  1.466923  4.067496
H                    0    3.742523  -1.602645  4.414941
H                    0    1.679567  -1.724104  2.976415
H                    0    2.269722  -0.368978  2.029200
H                    0    5.576276  -0.044989  3.776952
H                    0    4.582015  0.608708  2.474946
H                    0    3.974354  0.793429  5.470913
H                    0    4.489076  2.120704  4.438562
H                    0    1.999532  2.165967  4.775548
H                    0    2.447725  1.956388  3.087805
H                    0    4.151439  -1.817513  2.722709
C                    0    1.324499  -0.366826  5.349247
H                    0    0.951570  0.442638  5.991742
H                    0    2.242605  -0.747819  5.811708
C                    0    0.284937  -1.477230  5.289425
H                    0    -0.008362  -1.755314  6.313802
H                    0    0.688592  -2.385154  4.825765

C H O N P S 0
def2tzvp
****
Pd 0
SDD
****

Pd 0
SDD

eps=3.06095
epsinf=1.36375
HBondAcidity=0.00
HBondBasicity=0.205
SurfaceTensionAtInterface=24.855
CarbonAromaticity=0.000
ElectronegativeHalogenicity=0.000



