%nprocshared=8
%mem=8GB
%chk=IRC-5-function.chk
# genecp scrf=(smd,solvent=generic,read) nosymm em=gd3bj pbe1pbe 

IRC-5-function

0 1
Pd                    0    -0.887578  -0.453415  2.058311
P                    0    -0.660998  1.155119  0.388019
O                    0    1.757513  -4.239370  1.346424
S                    0    0.480506  -3.654417  0.785525
N                    0    0.751907  -2.989315  -0.758838
C                    0    0.958018  -1.526425  -0.713815
H                    0    0.713330  -1.211142  0.313412
C                    0    0.035502  -0.767974  -1.649149
C                    0    -0.432407  0.543198  -1.357804
C                    0    2.420262  -1.158936  -0.951191
C                    0    1.585816  -3.779178  -1.660748
C                    0    0.665271  2.402198  0.807351
C                    0    -2.239975  2.146693  0.410572
C                    0    -0.881069  -0.604760  -3.901742
C                    0    -1.235250  0.718639  -3.673786
C                    0    -0.956959  1.299820  -2.418394
C                    0    -0.219171  -1.312524  -2.903535
C                    0    -0.583464  -5.142793  0.382776
C                    0    -1.262512  -5.420750  1.726812
C                    0    -1.621625  -4.774165  -0.661662
C                    0    0.278255  -6.328382  -0.022329
C                    0    3.386423  -1.668268  -0.076488
C                    0    4.723480  -1.325230  -0.213373
C                    0    5.150384  -0.470778  -1.239975
C                    0    4.187421  0.000439  -2.138878
C                    0    2.845439  -0.340147  -1.998205
H                    0    -1.088196  -1.082035  -4.853248
H                    0    0.109832  -2.323166  -3.117098
H                    0    -1.890799  -4.578040  2.036276
H                    0    -0.526719  -5.622950  2.513585
H                    0    -1.905009  -6.303736  1.630640
H                    0    -2.327049  -5.607418  -0.773497
H                    0    -1.172594  -4.573715  -1.638156
H                    0    -2.196642  -3.895735  -0.361405
H                    0    -0.318502  -7.245041  0.057338
H                    0    1.145059  -6.418443  0.640127
H                    0    0.634686  -6.249104  -1.052592
H                    0    3.083680  -2.347457  0.716564
H                    0    2.123720  0.052297  -2.707767
H                    0    5.445725  -1.703368  0.505097
H                    0    4.492293  0.628720  -2.971789
H                    0    2.316853  -4.377480  -1.103156
H                    0    0.968627  -4.444974  -2.273208
H                    0    2.143422  -3.115903  -2.324621
C                    0    -3.434920  1.533713  -0.321668
C                    0    -2.605184  2.419828  1.876049
H                    0    -2.008415  3.096981  -0.077833
C                    0    -4.641371  2.467667  -0.236626
H                    0    -3.685109  0.569346  0.129242
H                    0    -3.196380  1.343527  -1.371608
C                    0    -3.808596  3.356576  1.961795
H                    0    -2.842934  1.463896  2.364060
H                    0    -1.754623  2.839878  2.426627
C                    0    -5.006052  2.781329  1.211149
H                    0    -5.493757  2.011622  -0.755997
H                    0    -4.411986  3.406367  -0.762591
H                    0    -4.063529  3.536020  3.014023
H                    0    -3.540506  4.332020  1.528921
H                    0    -5.854523  3.476334  1.252191
H                    0    -5.329519  1.854836  1.708524
C                    0    6.570457  -0.082159  -1.366176
C                    0    6.926307  1.205965  -1.788802
C                    0    7.595197  -0.987984  -1.060066
C                    0    8.262212  1.575888  -1.903673
H                    0    6.146293  1.931486  -2.004924
C                    0    8.931195  -0.617930  -1.173383
H                    0    7.341279  -1.998933  -0.752269
C                    0    9.270997  0.665353  -1.596313
H                    0    8.515903  2.582904  -2.224559
H                    0    9.710248  -1.338190  -0.937651
H                    0    10.314828  0.954335  -1.684186
O                    0    -1.864515  1.516586  -4.567142
C                    0    -2.207546  0.952421  -5.817039
H                    0    -2.714438  1.743183  -6.372453
H                    0    -1.317279  0.632423  -6.372883
H                    0    -2.888861  0.100819  -5.696204
O                    0    -1.291425  2.608054  -2.222349
C                    0    -0.535834  3.552571  -2.985961
H                    0    0.528086  3.465570  -2.728887
H                    0    -0.650851  3.335189  -4.053712
C                    0    -1.050308  4.924782  -2.664294
C                    0    -2.421016  5.142536  -2.506112
C                    0    -0.168866  5.998043  -2.527688
C                    0    -2.899953  6.413996  -2.205067
H                    0    -3.105901  4.305798  -2.607142
C                    0    -0.648587  7.273294  -2.237373
H                    0    0.900841  5.832287  -2.637833
C                    0    -2.015385  7.482965  -2.070538
H                    0    -3.967568  6.570786  -2.074304
H                    0    0.048276  8.100136  -2.128669
H                    0    -2.390096  8.474848  -1.832481
C                    0    1.981277  2.026275  0.124570
C                    0    0.305788  3.866559  0.541127
H                    0    0.771146  2.246696  1.891256
C                    0    3.119922  2.988213  0.456433
H                    0    1.831217  2.020818  -0.963757
H                    0    2.271008  1.007329  0.396836
C                    0    1.458556  4.803900  0.899643
H                    0    0.052026  4.003753  -0.514315
H                    0    -0.579289  4.159291  1.114393
C                    0    2.737244  4.432220  0.157979
H                    0    4.013380  2.693347  -0.108388
H                    0    3.381493  2.899733  1.519195
H                    0    1.163968  5.836209  0.671557
H                    0    1.642750  4.756943  1.982947
H                    0    3.554015  5.111722  0.432345
H                    0    2.576340  4.551431  -0.924845
C                    0    -2.127850  -1.398752  0.819950
H                    0    -1.696110  -1.660810  -0.150561
C                    0    -3.425895  -1.721808  0.978145
H                    0    -3.941666  -1.519918  1.919386
C                    0    -4.276468  -2.319465  -0.063075
C                    0    -5.427424  -3.046439  0.285590
C                    0    -6.233326  -3.637845  -0.673641
C                    0    -5.917547  -3.514689  -2.031496
C                    0    -4.790296  -2.778585  -2.405718
C                    0    -3.993651  -2.187497  -1.429128
H                    0    -5.684408  -3.157712  1.337216
H                    0    -7.117053  -4.204509  -0.394043
H                    0    -4.531951  -2.644867  -3.451148
H                    0    -3.134419  -1.599403  -1.741330
O                    0    -6.761394  -4.127151  -2.899523
C                    0    -6.466156  -4.025524  -4.273674
H                    0    -6.486670  -2.982577  -4.617201
H                    0    -5.487327  -4.463205  -4.511287
H                    0    -7.244639  -4.587429  -4.793893
O                    0    0.326055  0.590950  3.483661
C                    0    -1.616029  -1.801536  3.708235
H                    0    -1.238298  -2.787535  3.444477
H                    0    -2.671125  -1.616043  3.531172
C                    0    -0.935649  -1.027883  4.614705
H                    0    -1.415385  -0.130549  4.998345
C                    0    1.570629  0.198157  3.975844
C                    0    2.267246  -0.816157  3.053612
C                    0    3.717771  -1.106189  3.431457
C                    0    4.533032  0.182688  3.476104
C                    0    3.904768  1.191972  4.434335
C                    0    2.447721  1.458711  4.066396
H                    0    3.762627  -1.604052  4.410592
H                    0    1.685104  -1.745146  3.001556
H                    0    2.246218  -0.384086  2.044649
H                    0    5.571595  -0.026045  3.764400
H                    0    4.566585  0.614636  2.464531
H                    0    3.972614  0.808616  5.462709
H                    0    4.469013  2.134121  4.418898
H                    0    1.981508  2.159587  4.771659
H                    0    2.416893  1.936644  3.081392
H                    0    4.155825  -1.810670  2.714069
C                    0    1.364012  -0.385629  5.384585
H                    0    1.019723  0.426601  6.039163
H                    0    2.284442  -0.787724  5.822801
C                    0    0.299179  -1.469439  5.323034
H                    0    -0.014614  -1.740149  6.342999
H                    0    0.683251  -2.386329  4.860843

C H O N P S 0
def2tzvp
****
Pd 0
SDD
****

Pd 0
SDD

eps=3.06095
epsinf=1.36375
HBondAcidity=0.00
HBondBasicity=0.205
SurfaceTensionAtInterface=24.855
CarbonAromaticity=0.000
ElectronegativeHalogenicity=0.000



