%nprocshared=8
%mem=8GB
%chk=IRC-14-function.chk
# genecp scrf=(smd,solvent=generic,read) nosymm em=gd3bj pbe1pbe 

IRC-14-function

0 1
Pd                    0    -0.903832  -0.464790  2.036146
P                    0    -0.655818  1.161702  0.377521
O                    0    1.758975  -4.238868  1.344349
S                    0    0.480436  -3.653778  0.785007
N                    0    0.751459  -2.987854  -0.760242
C                    0    0.956442  -1.524489  -0.715373
H                    0    0.706107  -1.208749  0.310907
C                    0    0.036648  -0.764026  -1.652734
C                    0    -0.425691  0.551282  -1.366259
C                    0    2.419209  -1.157285  -0.950239
C                    0    1.585496  -3.777555  -1.661875
C                    0    0.664894  2.414818  0.797035
C                    0    -2.236443  2.154856  0.403309
C                    0    -0.883031  -0.604551  -3.904472
C                    0    -1.236429  0.719430  -3.678852
C                    0    -0.955194  1.302454  -2.425842
C                    0    -0.221219  -1.311348  -2.905070
C                    0    -0.582992  -5.142486  0.382493
C                    0    -1.261166  -5.418856  1.727458
C                    0    -1.621759  -4.773587  -0.661341
C                    0    0.278013  -6.328431  -0.022856
C                    0    3.385421  -1.667284  -0.075925
C                    0    4.722851  -1.324991  -0.212913
C                    0    5.150336  -0.470705  -1.239471
C                    0    4.187487  0.000754  -2.138364
C                    0    2.845418  -0.339100  -1.997505
H                    0    -1.092199  -1.083967  -4.854475
H                    0    0.104214  -2.323685  -3.116319
H                    0    -1.881903  -4.571876  2.040711
H                    0    -0.524579  -5.627055  2.511907
H                    0    -1.909385  -6.297660  1.630856
H                    0    -2.327206  -5.606847  -0.773152
H                    0    -1.173210  -4.572599  -1.637990
H                    0    -2.196499  -3.895313  -0.360026
H                    0    -0.318578  -7.245127  0.058140
H                    0    1.145627  -6.417897  0.638680
H                    0    0.633324  -6.249852  -1.053630
H                    0    3.082010  -2.348123  0.715626
H                    0    2.123973  0.053101  -2.707434
H                    0    5.445359  -1.704492  0.504668
H                    0    4.492637  0.628435  -2.971639
H                    0    2.316880  -4.375334  -1.104005
H                    0    0.968593  -4.444278  -2.273720
H                    0    2.142621  -3.114759  -2.326716
C                    0    -3.431876  1.535764  -0.323644
C                    0    -2.601905  2.423457  1.870395
H                    0    -2.014231  3.107577  -0.084625
C                    0    -4.641391  2.465866  -0.237113
H                    0    -3.676702  0.571134  0.130109
H                    0    -3.195965  1.344463  -1.374082
C                    0    -3.807697  3.357042  1.960108
H                    0    -2.836042  1.465679  2.355936
H                    0    -1.752900  2.847137  2.421393
C                    0    -5.005056  2.779671  1.210939
H                    0    -5.493564  2.007284  -0.754677
H                    0    -4.415509  3.404922  -0.764111
H                    0    -4.061592  3.534401  3.013046
H                    0    -3.543134  4.333848  1.527912
H                    0    -5.854634  3.473384  1.252741
H                    0    -5.326214  1.852805  1.708967
C                    0    6.570458  -0.082311  -1.365873
C                    0    6.926304  1.205821  -1.788608
C                    0    7.595263  -0.988117  -1.059929
C                    0    8.262189  1.575780  -1.903641
H                    0    6.146265  1.931212  -2.005111
C                    0    8.931251  -0.618023  -1.173398
H                    0    7.341402  -1.999189  -0.752461
C                    0    9.271020  0.665278  -1.596320
H                    0    8.515834  2.582711  -2.224836
H                    0    9.710345  -1.338350  -0.938004
H                    0    10.314841  0.954205  -1.684458
O                    0    -1.866545  1.516904  -4.571931
C                    0    -2.209555  0.951796  -5.820882
H                    0    -2.716333  1.741908  -6.377386
H                    0    -1.319315  0.630934  -6.376395
H                    0    -2.890958  0.100316  -5.699412
O                    0    -1.291539  2.610269  -2.228751
C                    0    -0.535478  3.554709  -2.989615
H                    0    0.528568  3.467508  -2.732406
H                    0    -0.649248  3.339490  -4.058111
C                    0    -1.049954  4.926361  -2.666090
C                    0    -2.420616  5.143258  -2.506489
C                    0    -0.168780  5.999668  -2.528858
C                    0    -2.899825  6.414368  -2.204488
H                    0    -3.105000  4.306137  -2.607445
C                    0    -0.648710  7.274485  -2.237218
H                    0    0.900914  5.834280  -2.639981
C                    0    -2.015546  7.483567  -2.069830
H                    0    -3.967426  6.570707  -2.073051
H                    0    0.047878  8.101556  -2.128327
H                    0    -2.390515  8.475223  -1.831195
C                    0    1.983948  2.033016  0.124007
C                    0    0.309760  3.878490  0.531476
H                    0    0.772051  2.278752  1.882191
C                    0    3.123117  2.991833  0.459724
H                    0    1.837502  2.026506  -0.964561
H                    0    2.267596  1.012309  0.397243
C                    0    1.462507  4.812001  0.896214
H                    0    0.059922  4.015413  -0.524659
H                    0    -0.578405  4.170153  1.100594
C                    0    2.742777  4.436240  0.159095
H                    0    4.018440  2.696026  -0.101550
H                    0    3.381034  2.903751  1.523886
H                    0    1.173246  5.845838  0.668528
H                    0    1.642472  4.763595  1.980427
H                    0    3.560098  5.114749  0.434155
H                    0    2.584693  4.553893  -0.924221
C                    0    -2.133269  -1.405222  0.813327
H                    0    -1.704193  -1.657403  -0.161139
C                    0    -3.428668  -1.731789  0.980805
H                    0    -3.931568  -1.544363  1.931307
C                    0    -4.280534  -2.321458  -0.062080
C                    0    -5.431439  -3.048780  0.285011
C                    0    -6.236492  -3.639303  -0.675259
C                    0    -5.919467  -3.515341  -2.032532
C                    0    -4.792410  -2.778633  -2.405647
C                    0    -3.997057  -2.187533  -1.428089
H                    0    -5.688116  -3.161558  1.336537
H                    0    -7.120263  -4.206595  -0.396940
H                    0    -4.533231  -2.644324  -3.450829
H                    0    -3.138064  -1.598796  -1.739581
O                    0    -6.762817  -4.128072  -2.901613
C                    0    -6.466342  -4.025433  -4.274984
H                    0    -6.486605  -2.982258  -4.618084
H                    0    -5.487125  -4.462626  -4.512263
H                    0    -7.244129  -4.587113  -4.796604
O                    0    0.257145  0.444813  3.631875
C                    0    -1.533292  -1.680673  3.662984
H                    0    -1.176763  -2.698448  3.499588
H                    0    -2.617083  -1.568443  3.642750
C                    0    -0.820858  -0.889369  4.602557
H                    0    -1.365972  -0.082959  5.089599
C                    0    1.578749  0.151454  4.030713
C                    0    2.257891  -0.838433  3.075880
C                    0    3.719643  -1.106085  3.426150
C                    0    4.516983  0.193843  3.467691
C                    0    3.874937  1.202272  4.418757
C                    0    2.406101  1.444976  4.062794
H                    0    3.784793  -1.611206  4.399895
H                    0    1.689689  -1.775032  3.031827
H                    0    2.204376  -0.398595  2.071269
H                    0    5.556793  0.000220  3.760964
H                    0    4.548992  0.621187  2.454353
H                    0    3.953884  0.833526  5.451226
H                    0    4.421289  2.153962  4.388694
H                    0    1.941863  2.150211  4.764180
H                    0    2.357119  1.903364  3.069443
H                    0    4.155821  -1.798880  2.697293
C                    0    1.434999  -0.417556  5.449079
H                    0    1.135021  0.401116  6.116649
H                    0    2.359596  -0.846553  5.846631
C                    0    0.328259  -1.451036  5.375516
H                    0    -0.036790  -1.717863  6.376684
H                    0    0.676614  -2.375708  4.901742

C H O N P S 0
def2tzvp
****
Pd 0
SDD
****

Pd 0
SDD

eps=3.06095
epsinf=1.36375
HBondAcidity=0.00
HBondBasicity=0.205
SurfaceTensionAtInterface=24.855
CarbonAromaticity=0.000
ElectronegativeHalogenicity=0.000



