%nprocshared=8
%mem=8GB
%chk=IRC-21-function.chk
# genecp scrf=(smd,solvent=generic,read) nosymm em=gd3bj pbe1pbe 

IRC-21-function

0 1
Pd                    0    -0.912368  -0.469271  2.022333
P                    0    -0.651841  1.166334  0.371596
O                    0    1.759989  -4.238542  1.343507
S                    0    0.480141  -3.653542  0.784948
N                    0    0.751529  -2.987293  -0.760791
C                    0    0.955337  -1.523593  -0.715934
H                    0    0.700639  -1.207562  0.309689
C                    0    0.037121  -0.761881  -1.654374
C                    0    -0.421858  0.555973  -1.370831
C                    0    2.418458  -1.156493  -0.949429
C                    0    1.585489  -3.776908  -1.662264
C                    0    0.664455  2.424263  0.789147
C                    0    -2.234561  2.159301  0.399651
C                    0    -0.883861  -0.604524  -3.905722
C                    0    -1.237173  0.719643  -3.681218
C                    0    -0.954437  1.303601  -2.429634
C                    0    -0.222187  -1.310785  -2.905580
C                    0    -0.582612  -5.142621  0.382369
C                    0    -1.260553  -5.418093  1.727719
C                    0    -1.621741  -4.773487  -0.661121
C                    0    0.278096  -6.328670  -0.023031
C                    0    3.384946  -1.666974  -0.075635
C                    0    4.722592  -1.324948  -0.212653
C                    0    5.150339  -0.470668  -1.239167
C                    0    4.187435  0.000770  -2.138019
C                    0    2.845325  -0.338710  -1.996924
H                    0    -1.093985  -1.085047  -4.854966
H                    0    0.101313  -2.324056  -3.115502
H                    0    -1.877184  -4.568708  2.042470
H                    0    -0.523712  -5.629087  2.511178
H                    0    -1.911509  -6.294889  1.630807
H                    0    -2.327185  -5.606771  -0.772942
H                    0    -1.173510  -4.572114  -1.637876
H                    0    -2.196326  -3.895339  -0.359034
H                    0    -0.318333  -7.245447  0.058617
H                    0    1.146086  -6.417725  0.638124
H                    0    0.632939  -6.250484  -1.054049
H                    0    3.081122  -2.349790  0.714235
H                    0    2.123929  0.053239  -2.707004
H                    0    5.445501  -1.705616  0.504007
H                    0    4.492651  0.628020  -2.971604
H                    0    2.316977  -4.374547  -1.104233
H                    0    0.968701  -4.444105  -2.273788
H                    0    2.142423  -3.114520  -2.327743
C                    0    -3.430266  1.536375  -0.324139
C                    0    -2.600227  2.425324  1.867727
H                    0    -2.018834  3.113791  -0.087806
C                    0    -4.641283  2.464748  -0.237265
H                    0    -3.672036  0.571590  0.131322
H                    0    -3.195647  1.344263  -1.374784
C                    0    -3.807444  3.357143  1.959505
H                    0    -2.831224  1.466696  2.352722
H                    0    -1.751979  2.852854  2.417811
C                    0    -5.004688  2.778866  1.210821
H                    0    -5.493435  2.005118  -0.753991
H                    0    -4.416803  3.403912  -0.764818
H                    0    -4.061152  3.533430  3.012750
H                    0    -3.544597  4.334659  1.527660
H                    0    -5.854644  3.472198  1.252835
H                    0    -5.324910  1.851921  1.709143
C                    0    6.570475  -0.082364  -1.365709
C                    0    6.926311  1.205771  -1.788533
C                    0    7.595332  -0.988134  -1.059801
C                    0    8.262188  1.575764  -1.903626
H                    0    6.146252  1.931028  -2.005449
C                    0    8.931312  -0.617998  -1.173313
H                    0    7.341519  -1.999331  -0.752682
C                    0    9.271052  0.665311  -1.596251
H                    0    8.515806  2.582608  -2.225116
H                    0    9.710438  -1.338373  -0.938169
H                    0    10.314864  0.954199  -1.684590
O                    0    -1.867611  1.516996  -4.574177
C                    0    -2.210396  0.951377  -5.822534
H                    0    -2.717171  1.741037  -6.379736
H                    0    -1.320091  0.630122  -6.377824
H                    0    -2.891733  0.099852  -5.700815
O                    0    -1.291712  2.611316  -2.231746
C                    0    -0.535411  3.555417  -2.991050
H                    0    0.528747  3.468255  -2.733723
H                    0    -0.648296  3.341334  -4.059983
C                    0    -1.049830  4.926897  -2.666903
C                    0    -2.420469  5.143435  -2.506715
C                    0    -0.168796  6.000239  -2.529433
C                    0    -2.899799  6.414437  -2.204465
H                    0    -3.104559  4.306077  -2.607489
C                    0    -0.648783  7.274889  -2.237302
H                    0    0.900898  5.834968  -2.640969
C                    0    -2.015651  7.483747  -2.069781
H                    0    -3.967402  6.570579  -2.072800
H                    0    0.047686  8.102079  -2.128398
H                    0    -2.390747  8.475337  -1.831031
C                    0    1.984922  2.037224  0.123071
C                    0    0.311859  3.886504  0.525202
H                    0    0.771662  2.299716  1.874945
C                    0    3.124763  2.993502  0.460944
H                    0    1.841197  2.029384  -0.965716
H                    0    2.263646  1.015112  0.397102
C                    0    1.464648  4.816803  0.894445
H                    0    0.063664  4.024802  -0.530961
H                    0    -0.578047  4.176527  1.092605
C                    0    2.745452  4.438216  0.159524
H                    0    4.021142  2.697545  -0.098533
H                    0    3.380983  2.905544  1.525958
H                    0    1.179536  5.852005  0.667956
H                    0    1.642305  4.766601  1.979189
H                    0    3.563353  5.116146  0.434230
H                    0    2.588267  4.554736  -0.923971
C                    0    -2.136110  -1.415266  0.815479
H                    0    -1.707295  -1.663200  -0.160671
C                    0    -3.431885  -1.737777  0.983029
H                    0    -3.927933  -1.558811  1.938493
C                    0    -4.283281  -2.321379  -0.061795
C                    0    -5.433796  -3.049325  0.284411
C                    0    -6.237950  -3.640004  -0.676207
C                    0    -5.920118  -3.515643  -2.033069
C                    0    -4.793107  -2.778846  -2.405693
C                    0    -3.998579  -2.187247  -1.427662
H                    0    -5.690089  -3.162567  1.335980
H                    0    -7.121568  -4.207971  -0.398633
H                    0    -4.533287  -2.644753  -3.450788
H                    0    -3.139354  -1.598454  -1.738445
O                    0    -6.763515  -4.128707  -2.902696
C                    0    -6.466315  -4.025640  -4.275435
H                    0    -6.486246  -2.982361  -4.618496
H                    0    -5.486880  -4.462617  -4.512593
H                    0    -7.243710  -4.587143  -4.797952
O                    0    0.190420  0.319201  3.730926
C                    0    -1.480384  -1.605949  3.625641
H                    0    -1.135192  -2.641453  3.561209
H                    0    -2.564287  -1.554695  3.755676
C                    0    -0.704706  -0.758005  4.568570
H                    0    -1.324317  -0.067214  5.145131
C                    0    1.584536  0.119108  4.069461
C                    0    2.248545  -0.849607  3.086985
C                    0    3.717268  -1.105281  3.422846
C                    0    4.505981  0.199354  3.464849
C                    0    3.851338  1.205688  4.410211
C                    0    2.372070  1.435223  4.059997
H                    0    3.791821  -1.616278  4.392356
H                    0    1.691257  -1.791662  3.042032
H                    0    2.177302  -0.400219  2.087720
H                    0    5.544663  0.013491  3.766072
H                    0    4.542021  0.624305  2.450951
H                    0    3.935629  0.846525  5.445052
H                    0    4.383428  2.164543  4.372246
H                    0    1.913550  2.145136  4.759795
H                    0    2.315876  1.880915  3.061573
H                    0    4.149659  -1.791458  2.686433
C                    0    1.475537  -0.438126  5.487961
H                    0    1.202589  0.385394  6.161114
H                    0    2.405455  -0.877215  5.856565
C                    0    0.344152  -1.440549  5.407513
H                    0    -0.060563  -1.708532  6.389141
H                    0    0.672458  -2.365332  4.919632

C H O N P S 0
def2tzvp
****
Pd 0
SDD
****

Pd 0
SDD

eps=3.06095
epsinf=1.36375
HBondAcidity=0.00
HBondBasicity=0.205
SurfaceTensionAtInterface=24.855
CarbonAromaticity=0.000
ElectronegativeHalogenicity=0.000



