%nprocshared=8
%mem=8GB
%chk=IRC-10-function.chk
# genecp scrf=(smd,solvent=generic,read) nosymm em=gd3bj pbe1pbe 

IRC-10-function

0 1
Pd                    0    -0.897444  -0.460590  2.045066
P                    0    -0.658077  1.159051  0.381719
O                    0    1.758341  -4.239057  1.344938
S                    0    0.480565  -3.653959  0.785027
N                    0    0.751509  -2.988269  -0.759826
C                    0    0.957108  -1.525140  -0.714905
H                    0    0.709442  -1.209618  0.311809
C                    0    0.036249  -0.765517  -1.651495
C                    0    -0.428314  0.548046  -1.362993
C                    0    2.419645  -1.157839  -0.950723
C                    0    1.585492  -3.778022  -1.661647
C                    0    0.665215  2.409422  0.801840
C                    0    -2.237784  2.151656  0.406063
C                    0    -0.882417  -0.604535  -3.903527
C                    0    -1.235934  0.719285  -3.677055
C                    0    -0.955773  1.301621  -2.423058
C                    0    -0.220551  -1.311723  -2.904629
C                    0    -0.583277  -5.142439  0.382480
C                    0    -1.261668  -5.419354  1.727148
C                    0    -1.621802  -4.773611  -0.661571
C                    0    0.277916  -6.328293  -0.022876
C                    0    3.385737  -1.667584  -0.076169
C                    0    4.723029  -1.325086  -0.213124
C                    0    5.150327  -0.470737  -1.239679
C                    0    4.187476  0.000719  -2.138570
C                    0    2.845430  -0.339382  -1.997836
H                    0    -1.090904  -1.083124  -4.854088
H                    0    0.106206  -2.323415  -3.116791
H                    0    -1.884787  -4.573706  2.039281
H                    0    -0.525342  -5.625875  2.512280
H                    0    -1.908294  -6.299312  1.630670
H                    0    -2.327233  -5.606862  -0.773445
H                    0    -1.173059  -4.572796  -1.638146
H                    0    -2.196670  -3.895288  -0.360688
H                    0    -0.318824  -7.244918  0.057597
H                    0    1.145261  -6.418114  0.638925
H                    0    0.633552  -6.249409  -1.053485
H                    0    3.082589  -2.347485  0.716194
H                    0    2.123926  0.052991  -2.707634
H                    0    5.445348  -1.703993  0.504908
H                    0    4.492550  0.628690  -2.971649
H                    0    2.316755  -4.376031  -1.103961
H                    0    0.968435  -4.444308  -2.273765
H                    0    2.142785  -3.114954  -2.326036
C                    0    -3.432995  1.535196  -0.323106
C                    0    -2.603004  2.422165  1.872471
H                    0    -2.011163  3.103217  -0.082124
C                    0    -4.641398  2.466654  -0.236880
H                    0    -3.679906  0.570599  0.129378
H                    0    -3.196111  1.344551  -1.373397
C                    0    -3.807926  3.356865  1.960744
H                    0    -2.838587  1.465108  2.359042
H                    0    -1.753379  2.844232  2.423252
C                    0    -5.005336  2.780227  1.211128
H                    0    -5.493608  2.008948  -0.755109
H                    0    -4.414357  3.405640  -0.763423
H                    0    -4.062022  3.534921  3.013461
H                    0    -3.542100  4.333190  1.528355
H                    0    -5.854571  3.474312  1.252775
H                    0    -5.327236  1.853436  1.708895
C                    0    6.570444  -0.082285  -1.365992
C                    0    6.926311  1.205851  -1.788646
C                    0    7.595212  -0.988132  -1.060049
C                    0    8.262208  1.575774  -1.903633
H                    0    6.146296  1.931334  -2.004901
C                    0    8.931209  -0.618079  -1.173485
H                    0    7.341313  -1.999155  -0.752460
C                    0    9.271008  0.665224  -1.596366
H                    0    8.515883  2.582755  -2.224646
H                    0    9.710273  -1.338412  -0.938011
H                    0    10.314839  0.954152  -1.684410
O                    0    -1.865767  1.516916  -4.570204
C                    0    -2.208929  0.952255  -5.819581
H                    0    -2.715718  1.742731  -6.375529
H                    0    -1.318735  0.631729  -6.375292
H                    0    -2.890377  0.100801  -5.698347
O                    0    -1.291444  2.609532  -2.226485
C                    0    -0.535505  3.554145  -2.988373
H                    0    0.528452  3.466958  -2.731143
H                    0    -0.649768  3.338124  -4.056574
C                    0    -1.050023  4.925949  -2.665404
C                    0    -2.420695  5.143125  -2.506213
C                    0    -0.168746  5.999237  -2.528375
C                    0    -2.899802  6.414336  -2.204435
H                    0    -3.105287  4.306162  -2.607194
C                    0    -0.648605  7.274180  -2.237090
H                    0    0.900953  5.833742  -2.639138
C                    0    -2.015419  7.483448  -2.069804
H                    0    -3.967390  6.570824  -2.073093
H                    0    0.048087  8.101149  -2.128151
H                    0    -2.390272  8.475148  -1.831189
C                    0    1.983094  2.030334  0.124556
C                    0    0.308301  3.873640  0.535292
H                    0    0.771630  2.265375  1.886594
C                    0    3.122002  2.990546  0.458792
H                    0    1.835143  2.024349  -0.963921
H                    0    2.269485  1.010470  0.397553
C                    0    1.461121  4.808835  0.897533
H                    0    0.057268  4.010331  -0.520701
H                    0    -0.578638  4.166137  1.105823
C                    0    2.740934  4.434797  0.158864
H                    0    4.016588  2.694925  -0.103785
H                    0    3.381145  2.902265  1.522400
H                    0    1.169514  5.841960  0.669485
H                    0    1.642559  4.761102  1.981394
H                    0    3.557958  5.113651  0.433996
H                    0    2.582070  4.553176  -0.924304
C                    0    -2.131424  -1.401080  0.813904
H                    0    -1.702166  -1.656426  -0.159470
C                    0    -3.427256  -1.728045  0.979453
H                    0    -3.935246  -1.535103  1.926421
C                    0    -4.279025  -2.321150  -0.062447
C                    0    -5.430024  -3.048200  0.285250
C                    0    -6.235508  -3.638812  -0.674721
C                    0    -5.918959  -3.515082  -2.032230
C                    0    -4.791857  -2.778486  -2.405707
C                    0    -3.995996  -2.187599  -1.428476
H                    0    -5.686882  -3.160525  1.336782
H                    0    -7.119335  -4.205754  -0.395957
H                    0    -4.533080  -2.644162  -3.450966
H                    0    -3.137020  -1.598992  -1.740279
O                    0    -6.762354  -4.127638  -2.900944
C                    0    -6.466423  -4.025138  -4.274679
H                    0    -6.486839  -2.981981  -4.617703
H                    0    -5.487376  -4.462475  -4.512183
H                    0    -7.244523  -4.586799  -4.795783
O                    0    0.290982  0.512209  3.568131
C                    0    -1.568553  -1.732083  3.687509
H                    0    -1.201823  -2.733869  3.467170
H                    0    -2.640481  -1.580456  3.583095
C                    0    -0.877474  -0.957254  4.615133
H                    0    -1.386059  -0.099930  5.049457
C                    0    1.575325  0.171186  4.007779
C                    0    2.262287  -0.830413  3.067966
C                    0    3.719790  -1.106374  3.428171
C                    0    4.523491  0.189851  3.470124
C                    0    3.888198  1.198950  4.424595
C                    0    2.424798  1.450339  4.064533
H                    0    3.778099  -1.608326  4.404241
H                    0    1.687945  -1.763872  3.022301
H                    0    2.220990  -0.394687  2.060999
H                    0    5.563418  -0.009368  3.759778
H                    0    4.554457  0.618917  2.457339
H                    0    3.963491  0.824099  5.455419
H                    0    4.442547  2.146491  4.399974
H                    0    1.958591  2.153448  4.767120
H                    0    2.381556  1.916170  3.074288
H                    0    4.157262  -1.803567  2.703790
C                    0    1.407308  -0.405148  5.423424
H                    0    1.090935  0.410535  6.087245
H                    0    2.329543  -0.826088  5.837275
C                    0    0.316629  -1.458497  5.354899
H                    0    -0.025670  -1.725561  6.365601
H                    0    0.679274  -2.381598  4.888457

C H O N P S 0
def2tzvp
****
Pd 0
SDD
****

Pd 0
SDD

eps=3.06095
epsinf=1.36375
HBondAcidity=0.00
HBondBasicity=0.205
SurfaceTensionAtInterface=24.855
CarbonAromaticity=0.000
ElectronegativeHalogenicity=0.000



