%nprocshared=8
%mem=8GB
%chk=IRC-16-function.chk
# genecp scrf=(smd,solvent=generic,read) nosymm em=gd3bj pbe1pbe 

IRC-16-function

0 1
Pd                    0    -0.906404  -0.466384  2.032441
P                    0    -0.654721  1.162887  0.375838
O                    0    1.759269  -4.238793  1.344121
S                    0    0.480342  -3.653703  0.785008
N                    0    0.751484  -2.987705  -0.760404
C                    0    0.956124  -1.524233  -0.715538
H                    0    0.704453  -1.208376  0.310539
C                    0    0.036784  -0.763403  -1.653214
C                    0    -0.424589  0.552678  -1.367591
C                    0    2.418999  -1.157070  -0.950016
C                    0    1.585497  -3.777372  -1.661981
C                    0    0.664730  2.417385  0.794796
C                    0    -2.235883  2.156178  0.402214
C                    0    -0.883265  -0.604551  -3.904838
C                    0    -1.236641  0.719481  -3.679537
C                    0    -0.954971  1.302764  -2.426949
C                    0    -0.221489  -1.311195  -2.905220
C                    0    -0.582879  -5.142523  0.382472
C                    0    -1.260990  -5.418655  1.727552
C                    0    -1.621752  -4.773564  -0.661267
C                    0    0.278036  -6.328499  -0.022888
C                    0    3.385291  -1.667190  -0.075841
C                    0    4.722782  -1.324971  -0.212833
C                    0    5.150341  -0.470695  -1.239385
C                    0    4.187478  0.000758  -2.138270
C                    0    2.845400  -0.338997  -1.997349
H                    0    -1.092715  -1.084286  -4.854622
H                    0    0.103382  -2.323804  -3.116093
H                    0    -1.880558  -4.571013  2.041294
H                    0    -0.524305  -5.627641  2.511701
H                    0    -1.909948  -6.296920  1.630851
H                    0    -2.327212  -5.606822  -0.773073
H                    0    -1.173289  -4.572480  -1.637948
H                    0    -2.196426  -3.895307  -0.359736
H                    0    -0.318494  -7.245230  0.058294
H                    0    1.145766  -6.417829  0.638534
H                    0    0.633214  -6.250031  -1.053733
H                    0    3.081750  -2.348593  0.715231
H                    0    2.123959  0.053127  -2.707313
H                    0    5.445410  -1.704796  0.504487
H                    0    4.492652  0.628316  -2.971633
H                    0    2.316918  -4.375105  -1.104062
H                    0    0.968637  -4.444248  -2.273731
H                    0    2.142562  -3.114706  -2.327025
C                    0    -3.431424  1.535960  -0.323801
C                    0    -2.601450  2.423973  1.869599
H                    0    -2.015724  3.109460  -0.085568
C                    0    -4.641375  2.465552  -0.237174
H                    0    -3.675364  0.571288  0.130444
H                    0    -3.195890  1.344424  -1.374303
C                    0    -3.807622  3.357085  1.959913
H                    0    -2.834704  1.465928  2.354889
H                    0    -1.752705  2.848775  2.420416
C                    0    -5.004954  2.779453  1.210892
H                    0    -5.493557  2.006669  -0.754478
H                    0    -4.415911  3.404645  -0.764333
H                    0    -4.061483  3.534164  3.012937
H                    0    -3.543549  4.334090  1.527798
H                    0    -5.854653  3.473045  1.252764
H                    0    -5.325820  1.852556  1.709005
C                    0    6.570463  -0.082326  -1.365825
C                    0    6.926306  1.205806  -1.788587
C                    0    7.595285  -0.988119  -1.059885
C                    0    8.262189  1.575776  -1.903637
H                    0    6.146261  1.931156  -2.005215
C                    0    8.931269  -0.618012  -1.173366
H                    0    7.341435  -1.999227  -0.752518
C                    0    9.271030  0.665289  -1.596297
H                    0    8.515826  2.582680  -2.224921
H                    0    9.710374  -1.338352  -0.938043
H                    0    10.314848  0.954205  -1.684494
O                    0    -1.866852  1.516921  -4.572593
C                    0    -2.209794  0.951662  -5.821359
H                    0    -2.716573  1.741635  -6.378078
H                    0    -1.319539  0.630677  -6.376815
H                    0    -2.891177  0.100165  -5.699822
O                    0    -1.291580  2.610572  -2.229623
C                    0    -0.535468  3.554898  -2.990034
H                    0    0.528623  3.467725  -2.732815
H                    0    -0.648980  3.340027  -4.058665
C                    0    -1.049918  4.926511  -2.666333
C                    0    -2.420575  5.143308  -2.506568
C                    0    -0.168787  5.999830  -2.529030
C                    0    -2.899821  6.414386  -2.204496
H                    0    -3.104867  4.306112  -2.607468
C                    0    -0.648734  7.274600  -2.237252
H                    0    0.900907  5.834476  -2.640275
C                    0    -2.015579  7.483618  -2.069828
H                    0    -3.967423  6.570666  -2.072993
H                    0    0.047819  8.101708  -2.128358
H                    0    -2.390586  8.475256  -1.831161
C                    0    1.984245  2.034173  0.123767
C                    0    0.310390  3.880646  0.529818
H                    0    0.772149  2.285061  1.880118
C                    0    3.123579  2.992302  0.460068
H                    0    1.838482  2.027350  -0.964843
H                    0    2.266543  1.013040  0.397088
C                    0    1.463085  4.813329  0.895715
H                    0    0.060966  4.017836  -0.526330
H                    0    -0.578306  4.171821  1.098403
C                    0    2.743513  4.436793  0.159210
H                    0    4.019219  2.696469  -0.100679
H                    0    3.381059  2.904319  1.524474
H                    0    1.174970  5.847539  0.668326
H                    0    1.642458  4.764522  1.980085
H                    0    3.560995  5.115145  0.434170
H                    0    2.585689  4.554120  -0.924154
C                    0    -2.133995  -1.407623  0.813856
H                    0    -1.704880  -1.658446  -0.161087
C                    0    -3.429437  -1.733412  0.981427
H                    0    -3.930096  -1.548660  1.933530
C                    0    -4.281219  -2.321426  -0.061971
C                    0    -5.432039  -3.048938  0.284865
C                    0    -6.236876  -3.639487  -0.675505
C                    0    -5.919644  -3.515423  -2.032664
C                    0    -4.792609  -2.778695  -2.405645
C                    0    -3.997472  -2.187462  -1.427962
H                    0    -5.688611  -3.161858  1.336403
H                    0    -7.120612  -4.206955  -0.397382
H                    0    -4.533256  -2.644435  -3.450805
H                    0    -3.138434  -1.598696  -1.739286
O                    0    -6.763017  -4.128254  -2.901912
C                    0    -6.466325  -4.025509  -4.275097
H                    0    -6.486491  -2.982310  -4.618210
H                    0    -5.487041  -4.462638  -4.512337
H                    0    -7.243994  -4.587149  -4.796975
O                    0    0.237872  0.409664  3.661550
C                    0    -1.517819  -1.658155  3.650317
H                    0    -1.166063  -2.682986  3.518747
H                    0    -2.604315  -1.565337  3.675700
C                    0    -0.788841  -0.851890  4.591981
H                    0    -1.355450  -0.077013  5.106795
C                    0    1.580424  0.142279  4.041368
C                    0    2.255537  -0.841615  3.078921
C                    0    3.719224  -1.105843  3.425265
C                    0    4.514149  0.195393  3.466831
C                    0    3.868746  1.203269  4.416353
C                    0    2.396993  1.442519  4.061926
H                    0    3.786958  -1.612528  4.397878
H                    0    1.690453  -1.779766  3.034909
H                    0    2.196940  -0.399493  2.075616
H                    0    5.553700  0.003993  3.762148
H                    0    4.547089  0.622065  2.453329
H                    0    3.949097  0.837231  5.449503
H                    0    4.411075  2.156986  4.384037
H                    0    1.934367  2.148931  4.763004
H                    0    2.346258  1.897766  3.067295
H                    0    4.154395  -1.796826  2.694371
C                    0    1.446536  -0.423136  5.459973
H                    0    1.153652  0.396958  6.128904
H                    0    2.372626  -0.854671  5.849857
C                    0    0.332917  -1.447943  5.384347
H                    0    -0.043403  -1.715123  6.380133
H                    0    0.675177  -2.372628  4.906295

C H O N P S 0
def2tzvp
****
Pd 0
SDD
****

Pd 0
SDD

eps=3.06095
epsinf=1.36375
HBondAcidity=0.00
HBondBasicity=0.205
SurfaceTensionAtInterface=24.855
CarbonAromaticity=0.000
ElectronegativeHalogenicity=0.000



