%nprocshared=8
%mem=8GB
%chk=IRC-6-function.chk
# genecp scrf=(smd,solvent=generic,read) nosymm em=gd3bj pbe1pbe 

IRC-6-function

0 1
Pd                    0    -0.889678  -0.455009  2.055470
P                    0    -0.660424  1.155945  0.386700
O                    0    1.757701  -4.239268  1.346069
S                    0    0.480553  -3.654280  0.785393
N                    0    0.751795  -2.989046  -0.759069
C                    0    0.957843  -1.526111  -0.714070
H                    0    0.712604  -1.210776  0.313061
C                    0    0.035691  -0.767426  -1.649690
C                    0    -0.431527  0.544228  -1.358936
C                    0    2.420146  -1.158667  -0.951100
C                    0    1.585747  -3.778896  -1.660938
C                    0    0.665292  2.403667  0.806362
C                    0    -2.239501  2.147739  0.409552
C                    0    -0.881374  -0.604720  -3.902156
C                    0    -1.235383  0.718783  -3.674550
C                    0    -0.956677  1.300240  -2.419450
C                    0    -0.219468  -1.312343  -2.903801
C                    0    -0.583415  -5.142675  0.382756
C                    0    -1.262255  -5.420339  1.726975
C                    0    -1.621666  -4.774034  -0.661592
C                    0    0.278178  -6.328341  -0.022386
C                    0    3.386267  -1.668068  -0.076391
C                    0    4.723376  -1.325165  -0.213294
C                    0    5.150377  -0.470762  -1.239900
C                    0    4.187454  0.000509  -2.138815
C                    0    2.845456  -0.339963  -1.998139
H                    0    -1.088808  -1.082304  -4.853442
H                    0    0.109053  -2.323212  -3.117051
H                    0    -1.889223  -4.576872  2.037136
H                    0    -0.526304  -5.623644  2.513312
H                    0    -1.905837  -6.302534  1.630777
H                    0    -2.327096  -5.607288  -0.773395
H                    0    -1.172701  -4.573549  -1.638113
H                    0    -2.196639  -3.895610  -0.361231
H                    0    -0.318579  -7.244984  0.057515
H                    0    1.145115  -6.418331  0.639910
H                    0    0.634406  -6.249186  -1.052736
H                    0    3.083435  -2.347327  0.716577
H                    0    2.123796  0.052462  -2.707769
H                    0    5.445616  -1.703427  0.505123
H                    0    4.492383  0.628714  -2.971762
H                    0    2.316852  -4.377091  -1.103307
H                    0    0.968599  -4.444835  -2.273294
H                    0    2.143265  -3.115665  -2.324937
C                    0    -3.434487  1.534045  -0.322059
C                    0    -2.604652  2.420417  1.875206
H                    0    -2.008840  3.098236  -0.078855
C                    0    -4.641385  2.467421  -0.236737
H                    0    -3.683975  0.569619  0.129166
H                    0    -3.196297  1.343783  -1.372077
C                    0    -3.808454  3.356644  1.961478
H                    0    -2.841795  1.464280  2.363066
H                    0    -1.754309  2.841096  2.425662
C                    0    -5.005889  2.781037  1.211096
H                    0    -5.493713  2.010973  -0.755854
H                    0    -4.412558  3.406191  -0.762830
H                    0    -4.063172  3.535806  3.013814
H                    0    -3.540903  4.332277  1.528680
H                    0    -5.854553  3.475806  1.252280
H                    0    -5.328977  1.854467  1.708563
C                    0    6.570459  -0.082185  -1.366125
C                    0    6.926307  1.205938  -1.788768
C                    0    7.595204  -0.988011  -1.060041
C                    0    8.262210  1.575864  -1.903667
H                    0    6.146291  1.931450  -2.004912
C                    0    8.931201  -0.617954  -1.173388
H                    0    7.341291  -1.998967  -0.752258
C                    0    9.270999  0.665330  -1.596320
H                    0    8.515894  2.582873  -2.224579
H                    0    9.710259  -1.338219  -0.937688
H                    0    10.314829  0.954306  -1.684221
O                    0    -1.864789  1.516629  -4.567879
C                    0    -2.207867  0.952316  -5.817655
H                    0    -2.714733  1.743005  -6.373200
H                    0    -1.317620  0.632180  -6.373461
H                    0    -2.889215  0.100756  -5.696696
O                    0    -1.291414  2.608396  -2.223341
C                    0    -0.535768  3.552957  -2.986615
H                    0    0.528165  3.465897  -2.729546
H                    0    -0.650681  3.335862  -4.054453
C                    0    -1.050249  4.925067  -2.664613
C                    0    -2.420949  5.142681  -2.506193
C                    0    -0.168846  5.998334  -2.527896
C                    0    -2.899930  6.414074  -2.204954
H                    0    -3.105772  4.305897  -2.607241
C                    0    -0.648607  7.273508  -2.237343
H                    0    0.900858  5.832643  -2.638195
C                    0    -2.015408  7.483078  -2.070395
H                    0    -3.967541  6.570789  -2.074067
H                    0    0.048213  8.100382  -2.128591
H                    0    -2.390158  8.474917  -1.832213
C                    0    1.981719  2.027149  0.124696
C                    0    0.306348  3.868030  0.539811
H                    0    0.771201  2.250580  1.890480
C                    0    3.120393  2.988789  0.457040
H                    0    1.832091  2.021563  -0.963664
H                    0    2.270829  1.008049  0.397175
C                    0    1.459105  4.805006  0.899078
H                    0    0.053272  4.004954  -0.515797
H                    0    -0.579153  4.160833  1.112386
C                    0    2.738097  4.432832  0.158163
H                    0    4.014101  2.693704  -0.107258
H                    0    3.381387  2.900400  1.519992
H                    0    1.165069  5.837438  0.670869
H                    0    1.642640  4.757993  1.982510
H                    0    3.554888  5.112209  0.432755
H                    0    2.577727  4.551838  -0.924755
C                    0    -2.128700  -1.398906  0.818182
H                    0    -1.697742  -1.659327  -0.153092
C                    0    -3.426135  -1.723215  0.978343
H                    0    -3.940208  -1.523378  1.920888
C                    0    -4.277061  -2.319958  -0.062926
C                    0    -5.428029  -3.046933  0.285540
C                    0    -6.233863  -3.638118  -0.673870
C                    0    -5.917923  -3.514812  -2.031654
C                    0    -4.790717  -2.778575  -2.405708
C                    0    -3.994243  -2.187569  -1.428974
H                    0    -5.684979  -3.158469  1.337143
H                    0    -7.117613  -4.204840  -0.394457
H                    0    -4.532292  -2.644688  -3.451098
H                    0    -3.135083  -1.599345  -1.741092
O                    0    -6.761641  -4.127280  -2.899843
C                    0    -6.466203  -4.025502  -4.273906
H                    0    -6.486712  -2.982523  -4.617355
H                    0    -5.487310  -4.463100  -4.511434
H                    0    -7.244571  -4.587395  -4.794316
O                    0    0.319457  0.575756  3.500650
C                    0    -1.606567  -1.787484  3.705373
H                    0    -1.230901  -2.776025  3.447629
H                    0    -2.664592  -1.606718  3.539301
C                    0    -0.925127  -1.014981  4.616412
H                    0    -1.408922  -0.123553  5.008285
C                    0    1.571558  0.192616  3.982485
C                    0    2.266326  -0.819389  3.056935
C                    0    3.718452  -1.106173  3.430811
C                    0    4.531055  0.184437  3.474546
C                    0    3.901579  1.193699  4.432144
C                    0    2.443246  1.456909  4.066052
H                    0    3.766474  -1.604742  4.409392
H                    0    1.685936  -1.749446  3.006583
H                    0    2.240820  -0.386803  2.048228
H                    0    5.570079  -0.022135  3.762683
H                    0    4.563575  0.615725  2.462671
H                    0    3.971257  0.812068  5.461028
H                    0    4.463829  2.136968  4.414659
H                    0    1.976880  2.158227  4.770685
H                    0    2.409512  1.932188  3.079868
H                    0    4.156469  -1.809126  2.711972
C                    0    1.373340  -0.389832  5.392921
H                    0    1.035232  0.423116  6.049740
H                    0    2.294116  -0.796401  5.825873
C                    0    0.302800  -1.467178  5.330145
H                    0    -0.016538  -1.736812  6.348545
H                    0    0.682302  -2.385711  4.867569

C H O N P S 0
def2tzvp
****
Pd 0
SDD
****

Pd 0
SDD

eps=3.06095
epsinf=1.36375
HBondAcidity=0.00
HBondBasicity=0.205
SurfaceTensionAtInterface=24.855
CarbonAromaticity=0.000
ElectronegativeHalogenicity=0.000



