%nprocshared=8
%mem=8GB
%chk=IRC-18-function.chk
# genecp scrf=(smd,solvent=generic,read) nosymm em=gd3bj pbe1pbe 

IRC-18-function

0 1
Pd                    0    -0.908755  -0.467711  2.028819
P                    0    -0.653626  1.164087  0.374295
O                    0    1.759551  -4.238717  1.343904
S                    0    0.480251  -3.653636  0.785001
N                    0    0.751516  -2.987564  -0.760550
C                    0    0.955817  -1.523995  -0.715681
H                    0    0.702885  -1.208037  0.310213
C                    0    0.036905  -0.762821  -1.653648
C                    0    -0.423557  0.553972  -1.368813
C                    0    2.418792  -1.156865  -0.949798
C                    0    1.585496  -3.777203  -1.662085
C                    0    0.664595  2.419948  0.792640
C                    0    -2.235369  2.157384  0.401231
C                    0    -0.883482  -0.604543  -3.905169
C                    0    -1.236843  0.719532  -3.680157
C                    0    -0.954772  1.303055  -2.427958
C                    0    -0.221740  -1.311046  -2.905349
C                    0    -0.582774  -5.142562  0.382438
C                    0    -1.260829  -5.418456  1.727623
C                    0    -1.621746  -4.773534  -0.661206
C                    0    0.278057  -6.328566  -0.022935
C                    0    3.385169  -1.667110  -0.075767
C                    0    4.722717  -1.324958  -0.212763
C                    0    5.150344  -0.470684  -1.239306
C                    0    4.187465  0.000761  -2.138179
C                    0    2.845376  -0.338898  -1.997194
H                    0    -1.093185  -1.084571  -4.854753
H                    0    0.102614  -2.323905  -3.115871
H                    0    -1.879268  -4.570153  2.041770
H                    0    -0.524069  -5.628180  2.511505
H                    0    -1.910507  -6.296195  1.630834
H                    0    -2.327217  -5.606791  -0.773012
H                    0    -1.173367  -4.572354  -1.637918
H                    0    -2.196359  -3.895296  -0.359464
H                    0    -0.318425  -7.245324  0.058417
H                    0    1.145888  -6.417779  0.638388
H                    0    0.633115  -6.250201  -1.053845
H                    0    3.081507  -2.349081  0.714823
H                    0    2.123940  0.053151  -2.707193
H                    0    5.445466  -1.705105  0.504295
H                    0    4.492656  0.628203  -2.971626
H                    0    2.316942  -4.374909  -1.104122
H                    0    0.968668  -4.444207  -2.273750
H                    0    2.142514  -3.114657  -2.327309
C                    0    -3.431001  1.536125  -0.323924
C                    0    -2.601022  2.424455  1.868891
H                    0    -2.017072  3.111180  -0.086400
C                    0    -4.641349  2.465262  -0.237214
H                    0    -3.674119  0.571405  0.130769
H                    0    -3.195808  1.344379  -1.374483
C                    0    -3.807561  3.357110  1.959758
H                    0    -2.833375  1.466182  2.354043
H                    0    -1.752512  2.850436  2.419417
C                    0    -5.004862  2.779247  1.210861
H                    0    -5.493538  2.006118  -0.754294
H                    0    -4.416249  3.404390  -0.764512
H                    0    -4.061394  3.533924  3.012860
H                    0    -3.543932  4.334299  1.527723
H                    0    -5.854662  3.472743  1.252794
H                    0    -5.325474  1.852327  1.709047
C                    0    6.570468  -0.082340  -1.365782
C                    0    6.926309  1.205794  -1.788567
C                    0    7.595303  -0.988124  -1.059852
C                    0    8.262190  1.575772  -1.903633
H                    0    6.146258  1.931105  -2.005312
C                    0    8.931286  -0.618006  -1.173344
H                    0    7.341465  -1.999267  -0.752586
C                    0    9.271039  0.665298  -1.596279
H                    0    8.515820  2.582652  -2.224999
H                    0    9.710399  -1.338360  -0.938091
H                    0    10.314855  0.954202  -1.684533
O                    0    -1.867135  1.516949  -4.573188
C                    0    -2.210012  0.951554  -5.821785
H                    0    -2.716792  1.741403  -6.378697
H                    0    -1.319741  0.630461  -6.377186
H                    0    -2.891375  0.100042  -5.700186
O                    0    -1.291623  2.610854  -2.230414
C                    0    -0.535456  3.555071  -2.990399
H                    0    0.528672  3.467921  -2.733158
H                    0    -0.648723  3.340514  -4.059153
C                    0    -1.049884  4.926647  -2.666543
C                    0    -2.420536  5.143353  -2.506625
C                    0    -0.168792  5.999977  -2.529178
C                    0    -2.899813  6.414404  -2.204490
H                    0    -3.104743  4.306090  -2.607470
C                    0    -0.648752  7.274705  -2.237273
H                    0    0.900902  5.834653  -2.640533
C                    0    -2.015606  7.483665  -2.069815
H                    0    -3.967416  6.570631  -2.072928
H                    0    0.047769  8.101846  -2.128379
H                    0    -2.390647  8.475287  -1.831121
C                    0    1.984499  2.035287  0.123536
C                    0    0.310973  3.882764  0.528179
H                    0    0.772116  2.291120  1.878143
C                    0    3.124018  2.992730  0.460377
H                    0    1.839425  2.028106  -0.965123
H                    0    2.265454  1.013746  0.397003
C                    0    1.463640  4.814598  0.895257
H                    0    0.061923  4.020303  -0.527962
H                    0    -0.578206  4.173435  1.096320
C                    0    2.744204  4.437305  0.159325
H                    0    4.019941  2.696878  -0.099900
H                    0    3.381096  2.904810  1.525012
H                    0    1.176648  5.849178  0.668202
H                    0    1.642429  4.765327  1.979774
H                    0    3.561845  5.115506  0.434167
H                    0    2.586596  4.554318  -0.924082
C                    0    -2.134707  -1.410256  0.814553
H                    0    -1.705623  -1.659877  -0.160863
C                    0    -3.430273  -1.734980  0.982007
H                    0    -3.929026  -1.552666  1.935493
C                    0    -4.281918  -2.321360  -0.061897
C                    0    -5.432630  -3.049064  0.284706
C                    0    -6.237241  -3.639663  -0.675747
C                    0    -5.919807  -3.515495  -2.032796
C                    0    -4.792788  -2.778754  -2.405656
C                    0    -3.997862  -2.187382  -1.427856
H                    0    -5.689085  -3.162102  1.336262
H                    0    -7.120933  -4.207314  -0.397812
H                    0    -4.533267  -2.644560  -3.450796
H                    0    -3.138760  -1.598605  -1.738997
O                    0    -6.763209  -4.128425  -2.902201
C                    0    -6.466319  -4.025562  -4.275203
H                    0    -6.486391  -2.982336  -4.618315
H                    0    -5.486974  -4.462629  -4.512421
H                    0    -7.243882  -4.587154  -4.797330
O                    0    0.217912  0.373717  3.690054
C                    0    -1.503131  -1.637180  3.638550
H                    0    -1.155234  -2.667585  3.537062
H                    0    -2.590006  -1.562256  3.708519
C                    0    -0.755302  -0.813590  4.580840
H                    0    -1.344202  -0.072665  5.122286
C                    0    1.582009  0.133386  4.051908
C                    0    2.253004  -0.844533  3.081746
C                    0    3.718605  -1.105586  3.424413
C                    0    4.511334  0.196820  3.466076
C                    0    3.862525  1.204068  4.414092
C                    0    2.387788  1.440024  4.061073
H                    0    3.788694  -1.613812  4.395912
H                    0    1.690918  -1.784161  3.037433
H                    0    2.189726  -0.399861  2.079856
H                    0    5.550559  0.007436  3.763544
H                    0    4.545385  0.622863  2.452440
H                    0    3.944235  0.840585  5.447865
H                    0    4.400920  2.159757  4.379711
H                    0    1.927010  2.147730  4.761876
H                    0    2.335553  1.892143  3.065185
H                    0    4.152659  -1.794883  2.691540
C                    0    1.457414  -0.428579  5.470380
H                    0    1.171337  0.392926  6.140509
H                    0    2.385028  -0.862371  5.852651
C                    0    0.337215  -1.445003  5.392716
H                    0    -0.050261  -1.712775  6.382890
H                    0    0.673939  -2.369522  4.910403

C H O N P S 0
def2tzvp
****
Pd 0
SDD
****

Pd 0
SDD

eps=3.06095
epsinf=1.36375
HBondAcidity=0.00
HBondBasicity=0.205
SurfaceTensionAtInterface=24.855
CarbonAromaticity=0.000
ElectronegativeHalogenicity=0.000



