%nprocshared=8
%mem=8GB
%chk=IRC-7-function.chk
# genecp scrf=(smd,solvent=generic,read) nosymm em=gd3bj pbe1pbe 

IRC-7-function

0 1
Pd                    0    -0.891727  -0.456535  2.052731
P                    0    -0.659849  1.156758  0.385394
O                    0    1.757876  -4.239190  1.345748
S                    0    0.480583  -3.654170  0.785282
N                    0    0.751697  -2.988810  -0.759279
C                    0    0.957663  -1.525828  -0.714304
H                    0    0.711849  -1.210441  0.312726
C                    0    0.035862  -0.766908  -1.650196
C                    0    -0.430674  0.545228  -1.360027
C                    0    2.420026  -1.158425  -0.951004
C                    0    1.585684  -3.778645  -1.661114
C                    0    0.665292  2.405135  0.805293
C                    0    -2.239047  2.148766  0.408585
C                    0    -0.881660  -0.604683  -3.902542
C                    0    -1.235519  0.718915  -3.675263
C                    0    -0.956420  1.300628  -2.420450
C                    0    -0.219754  -1.312175  -2.904043
C                    0    -0.583367  -5.142590  0.382719
C                    0    -1.262038  -5.420001  1.727092
C                    0    -1.621699  -4.773924  -0.661546
C                    0    0.278116  -6.328318  -0.022461
C                    0    3.386121  -1.667902  -0.076308
C                    0    4.723280  -1.325121  -0.213228
C                    0    5.150367  -0.470753  -1.239832
C                    0    4.187475  0.000568  -2.138751
C                    0    2.845464  -0.339798  -1.998068
H                    0    -1.089388  -1.082557  -4.853621
H                    0    0.108294  -2.323267  -3.116991
H                    0    -1.887819  -4.575855  2.037870
H                    0    -0.525954  -5.624292  2.513046
H                    0    -1.906582  -6.301493  1.630855
H                    0    -2.327131  -5.607178  -0.773335
H                    0    -1.172795  -4.573383  -1.638088
H                    0    -2.196636  -3.895514  -0.361070
H                    0    -0.318635  -7.244952  0.057646
H                    0    1.145173  -6.418240  0.639690
H                    0    0.634162  -6.249270  -1.052890
H                    0    3.083203  -2.347261  0.716554
H                    0    2.123856  0.052609  -2.707756
H                    0    5.445524  -1.703518  0.505120
H                    0    4.492454  0.628703  -2.971735
H                    0    2.316850  -4.376747  -1.103449
H                    0    0.968575  -4.444712  -2.273379
H                    0    2.143123  -3.115458  -2.325232
C                    0    -3.434077  1.534357  -0.322399
C                    0    -2.604175  2.420935  1.874426
H                    0    -2.009340  3.099501  -0.079799
C                    0    -4.641397  2.467187  -0.236823
H                    0    -3.682876  0.569883  0.129154
H                    0    -3.196231  1.344000  -1.372489
C                    0    -3.808317  3.356706  1.961208
H                    0    -2.840818  1.464575  2.362036
H                    0    -1.754042  2.842107  2.424865
C                    0    -5.005739  2.780783  1.211060
H                    0    -5.493677  2.010359  -0.755693
H                    0    -4.413094  3.406016  -0.763052
H                    0    -4.062847  3.535591  3.013645
H                    0    -3.541258  4.332519  1.528494
H                    0    -5.854575  3.475341  1.252370
H                    0    -5.328482  1.854147  1.708615
C                    0    6.570459  -0.082211  -1.366080
C                    0    6.926307  1.205913  -1.788735
C                    0    7.595210  -0.988037  -1.060022
C                    0    8.262206  1.575841  -1.903659
H                    0    6.146288  1.931415  -2.004905
C                    0    8.931205  -0.617977  -1.173394
H                    0    7.341303  -1.999003  -0.752263
C                    0    9.271000  0.665308  -1.596324
H                    0    8.515885  2.582844  -2.224598
H                    0    9.710268  -1.338250  -0.937731
H                    0    10.314829  0.954278  -1.684254
O                    0    -1.865053  1.516676  -4.568558
C                    0    -2.208161  0.952232  -5.818222
H                    0    -2.715003  1.742850  -6.373896
H                    0    -1.317930  0.631971  -6.373990
H                    0    -2.889539  0.100707  -5.697160
O                    0    -1.291413  2.608711  -2.224253
C                    0    -0.535704  3.553302  -2.987187
H                    0    0.528239  3.466194  -2.730110
H                    0    -0.650493  3.336489  -4.055115
C                    0    -1.050192  4.925321  -2.664887
C                    0    -2.420886  5.142806  -2.506251
C                    0    -0.168826  5.998593  -2.528072
C                    0    -2.899906  6.414142  -2.204846
H                    0    -3.105647  4.305976  -2.607308
C                    0    -0.648622  7.273699  -2.237309
H                    0    0.900876  5.832963  -2.638514
C                    0    -2.015427  7.483178  -2.070263
H                    0    -3.967514  6.570789  -2.073848
H                    0    0.048158  8.100603  -2.128516
H                    0    -2.390213  8.474977  -1.831974
C                    0    1.982118  2.028002  0.124736
C                    0    0.306875  3.869493  0.538548
H                    0    0.771273  2.254431  1.889605
C                    0    3.120832  2.989314  0.457573
H                    0    1.832927  2.022309  -0.963657
H                    0    2.270577  1.008733  0.397397
C                    0    1.459637  4.806064  0.898577
H                    0    0.054438  4.006245  -0.517202
H                    0    -0.579030  4.162316  1.110488
C                    0    2.738893  4.433400  0.158337
H                    0    4.014787  2.694046  -0.106225
H                    0    3.381277  2.900988  1.520708
H                    0    1.166189  5.838643  0.670306
H                    0    1.642561  4.758946  1.982129
H                    0    3.555722  5.112648  0.433121
H                    0    2.579000  4.552225  -0.924662
C                    0    -2.129483  -1.399211  0.816680
H                    0    -1.699172  -1.658143  -0.155262
C                    0    -3.426385  -1.724543  0.978584
H                    0    -3.938814  -1.526644  1.922363
C                    0    -4.277609  -2.320369  -0.062782
C                    0    -5.428589  -3.047351  0.285482
C                    0    -6.234344  -3.638347  -0.674093
C                    0    -5.918243  -3.514913  -2.031805
C                    0    -4.791071  -2.778562  -2.405699
C                    0    -3.994765  -2.187614  -1.428826
H                    0    -5.685516  -3.159127  1.337063
H                    0    -7.118115  -4.205128  -0.394858
H                    0    -4.532558  -2.644534  -3.451051
H                    0    -3.135669  -1.599274  -1.740863
O                    0    -6.761852  -4.127394  -2.900142
C                    0    -6.466242  -4.025466  -4.274122
H                    0    -6.486740  -2.982455  -4.617492
H                    0    -5.487295  -4.462991  -4.511588
H                    0    -7.244513  -4.587337  -4.794711
O                    0    0.312758  0.560336  3.517636
C                    0    -1.596997  -1.773392  3.701910
H                    0    -1.223376  -2.764738  3.451269
H                    0    -2.658297  -1.598299  3.548404
C                    0    -0.914136  -1.001542  4.617344
H                    0    -1.402659  -0.116797  5.018375
C                    0    1.572499  0.187145  3.989026
C                    0    2.265361  -0.822445  3.060065
C                    0    3.718983  -1.106192  3.430146
C                    0    4.529070  0.186039  3.473188
C                    0    3.898264  1.195304  4.430055
C                    0    2.438674  1.455172  4.065680
H                    0    3.769975  -1.605564  4.408116
H                    0    1.686582  -1.753458  3.011264
H                    0    2.235510  -0.389243  2.051693
H                    0    5.568460  -0.018460  3.761401
H                    0    4.560818  0.616704  2.461038
H                    0    3.969598  0.815460  5.459462
H                    0    4.458500  2.139685  4.410560
H                    0    1.972157  2.156922  4.769697
H                    0    2.402156  1.927846  3.078357
H                    0    4.156940  -1.807600  2.709841
C                    0    1.382434  -0.393906  5.401032
H                    0    1.050396  0.419712  6.059995
H                    0    2.303521  -0.804754  5.828855
C                    0    0.306397  -1.464865  5.336863
H                    0    -0.018662  -1.733538  6.353559
H                    0    0.681437  -2.384890  4.873758

C H O N P S 0
def2tzvp
****
Pd 0
SDD
****

Pd 0
SDD

eps=3.06095
epsinf=1.36375
HBondAcidity=0.00
HBondBasicity=0.205
SurfaceTensionAtInterface=24.855
CarbonAromaticity=0.000
ElectronegativeHalogenicity=0.000



