%nprocshared=8
%mem=8GB
%chk=IRC-8-function.chk
# genecp scrf=(smd,solvent=generic,read) nosymm em=gd3bj pbe1pbe 

IRC-8-function

0 1
Pd                    0    -0.893719  -0.457979  2.050078
P                    0    -0.659266  1.157550  0.384123
O                    0    1.758043  -4.239128  1.345465
S                    0    0.480597  -3.654082  0.785195
N                    0    0.751619  -2.988607  -0.759467
C                    0    0.957484  -1.525573  -0.714513
H                    0    0.711079  -1.210140  0.312415
C                    0    0.036014  -0.766420  -1.650658
C                    0    -0.429856  0.546195  -1.361064
C                    0    2.419906  -1.158209  -0.950904
C                    0    1.585629  -3.778424  -1.661273
C                    0    0.665276  2.406584  0.804168
C                    0    -2.238612  2.149761  0.407681
C                    0    -0.881924  -0.604646  -3.902893
C                    0    -1.235658  0.719035  -3.675913
C                    0    -0.956187  1.300982  -2.421382
C                    0    -0.220022  -1.312019  -2.904254
C                    0    -0.583321  -5.142528  0.382675
C                    0    -1.261861  -5.419729  1.727174
C                    0    -1.621725  -4.773828  -0.661514
C                    0    0.278065  -6.328307  -0.022544
C                    0    3.385989  -1.667765  -0.076238
C                    0    4.723194  -1.325089  -0.213173
C                    0    5.150358  -0.470745  -1.239771
C                    0    4.187488  0.000619  -2.138689
C                    0    2.845464  -0.339651  -1.997992
H                    0    -1.089913  -1.082788  -4.853783
H                    0    0.107587  -2.323318  -3.116921
H                    0    -1.886651  -4.575015  2.038458
H                    0    -0.525672  -5.624829  2.512815
H                    0    -1.907188  -6.300647  1.630895
H                    0    -2.327159  -5.607083  -0.773302
H                    0    -1.172878  -4.573224  -1.638073
H                    0    -2.196630  -3.895437  -0.360917
H                    0    -0.318677  -7.244938  0.057734
H                    0    1.145226  -6.418168  0.639485
H                    0    0.633961  -6.249345  -1.053038
H                    0    3.082992  -2.347258  0.716496
H                    0    2.123900  0.052736  -2.707729
H                    0    5.445453  -1.703630  0.505093
H                    0    4.492506  0.628689  -2.971709
H                    0    2.316840  -4.376457  -1.103576
H                    0    0.968553  -4.444601  -2.273462
H                    0    2.143007  -3.115283  -2.325496
C                    0    -3.433693  1.534646  -0.322682
C                    0    -2.603756  2.421394  1.873706
H                    0    -2.009902  3.100751  -0.080660
C                    0    -4.641403  2.466979  -0.236883
H                    0    -3.681842  0.570135  0.129202
H                    0    -3.196181  1.344174  -1.372839
C                    0    -3.808187  3.356773  1.960987
H                    0    -2.840013  1.464804  2.360996
H                    0    -1.753809  2.842904  2.424235
C                    0    -5.005600  2.780571  1.211044
H                    0    -5.493647  2.009817  -0.755524
H                    0    -4.413564  3.405859  -0.763235
H                    0    -4.062555  3.535391  3.013517
H                    0    -3.541574  4.332757  1.528361
H                    0    -5.854585  3.474951  1.252460
H                    0    -5.328040  1.853883  1.708683
C                    0    6.570458  -0.082234  -1.366042
C                    0    6.926307  1.205891  -1.788707
C                    0    7.595215  -0.988062  -1.060012
C                    0    8.262204  1.575822  -1.903653
H                    0    6.146286  1.931383  -2.004906
C                    0    8.931209  -0.618000  -1.173406
H                    0    7.341313  -1.999039  -0.752284
C                    0    9.271002  0.665289  -1.596332
H                    0    8.515878  2.582817  -2.224620
H                    0    9.710275  -1.338281  -0.937783
H                    0    10.314830  0.954251  -1.684291
O                    0    -1.865306  1.516729  -4.569170
C                    0    -2.208430  0.952172  -5.818726
H                    0    -2.715251  1.742721  -6.374520
H                    0    -1.318207  0.631800  -6.374455
H                    0    -2.889828  0.100672  -5.697578
O                    0    -1.291420  2.609000  -2.225076
C                    0    -0.535644  3.553605  -2.987673
H                    0    0.528307  3.466458  -2.730574
H                    0    -0.650292  3.337058  -4.055689
C                    0    -1.050139  4.925544  -2.665115
C                    0    -2.420826  5.142914  -2.506286
C                    0    -0.168805  5.998820  -2.528216
C                    0    -2.899882  6.414201  -2.204742
H                    0    -3.105528  4.306040  -2.607342
C                    0    -0.648631  7.273868  -2.237271
H                    0    0.900894  5.833240  -2.638785
C                    0    -2.015439  7.483266  -2.070141
H                    0    -3.967486  6.570788  -2.073648
H                    0    0.048113  8.100799  -2.128447
H                    0    -2.390258  8.475033  -1.831764
C                    0    1.982477  2.028817  0.124712
C                    0    0.307370  3.870914  0.537374
H                    0    0.771364  2.258166  1.888648
C                    0    3.121242  2.989785  0.458025
H                    0    1.833706  2.023017  -0.963710
H                    0    2.270267  1.009366  0.397521
C                    0    1.460142  4.807056  0.898144
H                    0    0.055463  4.007566  -0.518482
H                    0    -0.578905  4.163675  1.108782
C                    0    2.739619  4.433919  0.158496
H                    0    4.015419  2.694371  -0.105331
H                    0    3.381205  2.901495  1.521327
H                    0    1.167284  5.839796  0.669877
H                    0    1.642518  4.759785  1.981807
H                    0    3.556498  5.113042  0.433420
H                    0    2.580120  4.552571  -0.924571
C                    0    -2.130190  -1.399682  0.815480
H                    0    -1.700349  -1.657336  -0.157004
C                    0    -3.426654  -1.725768  0.978858
H                    0    -3.937547  -1.529576  1.923752
C                    0    -4.278109  -2.320697  -0.062646
C                    0    -5.429098  -3.047692  0.285426
C                    0    -6.234767  -3.638537  -0.674295
C                    0    -5.918513  -3.514994  -2.031939
C                    0    -4.791367  -2.778550  -2.405685
C                    0    -3.995219  -2.187636  -1.428686
H                    0    -5.685999  -3.159676  1.336988
H                    0    -7.118554  -4.205378  -0.395222
H                    0    -4.532762  -2.644412  -3.451003
H                    0    -3.136170  -1.599199  -1.740644
O                    0    -6.762035  -4.127494  -2.900410
C                    0    -6.466281  -4.025419  -4.274307
H                    0    -6.486763  -2.982375  -4.617599
H                    0    -5.487288  -4.462879  -4.511735
H                    0    -7.244469  -4.587261  -4.795062
O                    0    0.305770  0.544550  3.534628
C                    0    -1.587423  -1.759404  3.697645
H                    0    -1.216001  -2.753934  3.455585
H                    0    -2.652222  -1.591195  3.558709
C                    0    -0.902522  -0.987429  4.617380
H                    0    -1.396868  -0.110669  5.028600
C                    0    1.573452  0.181767  3.995420
C                    0    2.264373  -0.825260  3.062923
C                    0    3.719365  -1.106231  3.429503
C                    0    4.527151  0.187466  3.472024
C                    0    3.894930  1.196708  4.428122
C                    0    2.434086  1.453533  4.065303
H                    0    3.773002  -1.606395  4.406876
H                    0    1.687067  -1.757106  3.015348
H                    0    2.230519  -0.391272  2.054968
H                    0    5.566802  -0.015147  3.760544
H                    0    4.558425  0.617550  2.459632
H                    0    3.967732  0.818554  5.458018
H                    0    4.453230  2.142146  4.406818
H                    0    1.967572  2.155733  4.768781
H                    0    2.395116  1.923801  3.076937
H                    0    4.157229  -1.806199  2.707833
C                    0    1.391089  -0.397751  5.408826
H                    0    1.064465  0.416590  6.069513
H                    0    2.312502  -0.812282  5.831915
C                    0    0.309928  -1.462618  5.343161
H                    0    -0.020890  -1.730609  6.357981
H                    0    0.680701  -2.383869  4.879186

C H O N P S 0
def2tzvp
****
Pd 0
SDD
****

Pd 0
SDD

eps=3.06095
epsinf=1.36375
HBondAcidity=0.00
HBondBasicity=0.205
SurfaceTensionAtInterface=24.855
CarbonAromaticity=0.000
ElectronegativeHalogenicity=0.000



