%nprocshared=8
%mem=8GB
%chk=IRC-4-function.chk
# genecp scrf=(smd,solvent=generic,read) nosymm em=gd3bj pbe1pbe 

IRC-4-function

0 1
Pd                    0    -0.885451  -0.451770  2.061234
P                    0    -0.661563  1.154287  0.389340
O                    0    1.757317  -4.239496  1.346827
S                    0    0.480445  -3.654585  0.785687
N                    0    0.752037  -2.989622  -0.758579
C                    0    0.958192  -1.526773  -0.713530
H                    0    0.714040  -1.211545  0.313793
C                    0    0.035294  -0.768552  -1.648562
C                    0    -0.433316  0.542139  -1.356630
C                    0    2.420377  -1.159235  -0.951273
C                    0    1.585897  -3.779496  -1.660530
C                    0    0.665230  2.400729  0.808246
C                    0    -2.240469  2.145623  0.411662
C                    0    -0.880741  -0.604802  -3.901293
C                    0    -1.235124  0.718479  -3.672963
C                    0    -0.957268  1.299363  -2.417275
C                    0    -0.218857  -1.312721  -2.903235
C                    0    -0.583511  -5.142948  0.382787
C                    0    -1.262815  -5.421246  1.726606
C                    0    -1.621570  -4.774325  -0.661753
C                    0    0.278355  -6.328444  -0.022280
C                    0    3.386595  -1.668504  -0.076596
C                    0    4.723595  -1.325314  -0.213466
C                    0    5.150391  -0.470799  -1.240057
C                    0    4.187377  0.000358  -2.138941
C                    0    2.845413  -0.340356  -1.998262
H                    0    -1.087524  -1.081748  -4.853035
H                    0    0.110663  -2.323120  -3.117131
H                    0    -1.892641  -4.579417  2.035243
H                    0    -0.527212  -5.622129  2.513898
H                    0    -1.904017  -6.305176  1.630460
H                    0    -2.326983  -5.607581  -0.773637
H                    0    -1.172465  -4.573897  -1.638215
H                    0    -2.196642  -3.895900  -0.361594
H                    0    -0.318396  -7.245126  0.057110
H                    0    1.145003  -6.418585  0.640368
H                    0    0.635029  -6.249018  -1.052440
H                    0    3.083949  -2.347651  0.716521
H                    0    2.123623  0.052105  -2.707746
H                    0    5.445856  -1.703337  0.505044
H                    0    4.492179  0.628719  -2.971816
H                    0    2.316847  -4.377930  -1.102978
H                    0    0.968664  -4.445132  -2.273113
H                    0    2.143613  -3.116182  -2.324265
C                    0    -3.435382  1.533362  -0.321211
C                    0    -2.605786  2.419145  1.876974
H                    0    -2.008072  3.095735  -0.076697
C                    0    -4.641351  2.467941  -0.236484
H                    0    -3.686308  0.569068  0.129394
H                    0    -3.196482  1.343222  -1.371067
C                    0    -3.808745  3.356501  1.962170
H                    0    -2.844270  1.463405  2.365043
H                    0    -1.755015  2.838441  2.427781
C                    0    -5.006231  2.781678  1.211221
H                    0    -5.493809  2.012342  -0.756127
H                    0    -4.411347  3.406558  -0.762316
H                    0    -4.063926  3.536244  3.014282
H                    0    -3.540042  4.331740  1.529228
H                    0    -5.854471  3.476969  1.252093
H                    0    -5.330142  1.855284  1.708503
C                    0    6.570453  -0.082130  -1.366236
C                    0    6.926304  1.205995  -1.788842
C                    0    7.595189  -0.987954  -1.060100
C                    0    8.262214  1.575916  -1.903682
H                    0    6.146293  1.931524  -2.004947
C                    0    8.931189  -0.617902  -1.173384
H                    0    7.341266  -1.998899  -0.752295
C                    0    9.270995  0.665381  -1.596309
H                    0    8.515911  2.582938  -2.224542
H                    0    9.710237  -1.338157  -0.937620
H                    0    10.314826  0.954370  -1.684152
O                    0    -1.864236  1.516547  -4.566337
C                    0    -2.207196  0.952547  -5.816360
H                    0    -2.714119  1.743382  -6.371638
H                    0    -1.316897  0.632706  -6.372236
H                    0    -2.888464  0.100890  -5.695668
O                    0    -1.291450  2.607680  -2.221264
C                    0    -0.535904  3.552138  -2.985207
H                    0    0.528000  3.465203  -2.728101
H                    0    -0.650997  3.334449  -4.052869
C                    0    -1.050372  4.924459  -2.663921
C                    0    -2.421088  5.142369  -2.506006
C                    0    -0.168887  5.997714  -2.527442
C                    0    -2.899976  6.413905  -2.205190
H                    0    -3.106039  4.305678  -2.607007
C                    0    -0.648561  7.273051  -2.237402
H                    0    0.900823  5.831878  -2.637411
C                    0    -2.015357  7.482837  -2.070701
H                    0    -3.967597  6.570781  -2.074573
H                    0    0.048351  8.099859  -2.128758
H                    0    -2.390026  8.474772  -1.832800
C                    0    1.980785  2.025390  0.124324
C                    0    0.305189  3.865075  0.542528
H                    0    0.771131  2.242713  1.891918
C                    0    3.119417  2.987587  0.455714
H                    0    1.830268  2.020081  -0.963966
H                    0    2.271110  1.006576  0.396326
C                    0    1.457987  4.802736  0.900284
H                    0    0.050615  4.002634  -0.512705
H                    0    -0.579418  4.157641  1.116608
C                    0    2.736320  4.431567  0.157772
H                    0    4.012599  2.692982  -0.109695
H                    0    3.381628  2.898961  1.518268
H                    0    1.162859  5.834944  0.672412
H                    0    1.642907  4.755759  1.983446
H                    0    3.553086  5.111194  0.431858
H                    0    2.574786  4.551003  -0.924940
C                    0    -2.126925  -1.398770  0.822013
H                    0    -1.694200  -1.662725  -0.147579
C                    0    -3.425670  -1.720282  0.977991
H                    0    -3.943259  -1.516049  1.917787
C                    0    -4.275818  -2.318877  -0.063223
C                    0    -5.426764  -3.045848  0.285646
C                    0    -6.232719  -3.637517  -0.673387
C                    0    -5.917101  -3.514539  -2.031316
C                    0    -4.789795  -2.778595  -2.405716
C                    0    -3.992973  -2.187393  -1.429280
H                    0    -5.683782  -3.156816  1.337299
H                    0    -7.116421  -4.204119  -0.393587
H                    0    -4.531516  -2.645086  -3.451190
H                    0    -3.133650  -1.599454  -1.741568
O                    0    -6.761105  -4.127002  -2.899162
C                    0    -6.466098  -4.025537  -4.273402
H                    0    -6.486608  -2.982623  -4.617014
H                    0    -5.487344  -4.463315  -4.511125
H                    0    -7.244715  -4.587445  -4.793410
O                    0    0.332436  0.605731  3.466778
C                    0    -1.625353  -1.815561  3.710207
H                    0    -1.245632  -2.799350  3.441667
H                    0    -2.677900  -1.626637  3.524074
C                    0    -0.945574  -1.040086  4.612074
H                    0    -1.422377  -0.138088  4.988553
C                    0    1.569742  0.203790  3.969096
C                    0    2.268130  -0.812668  3.050027
C                    0    3.716901  -1.106252  3.432123
C                    0    4.535027  0.180742  3.477910
C                    0    3.907869  1.190061  4.436689
C                    0    2.452141  1.460630  4.066729
H                    0    3.758245  -1.603427  4.411809
H                    0    1.684002  -1.740396  2.995901
H                    0    2.251934  -0.380882  2.040917
H                    0    5.573004  -0.030351  3.766663
H                    0    4.569988  0.613379  2.466670
H                    0    3.973665  0.804902  5.464529
H                    0    4.474228  2.131010  4.423506
H                    0    1.986206  2.161080  4.772679
H                    0    2.424550  1.941389  3.082992
H                    0    4.154980  -1.812341  2.716272
C                    0    1.354329  -0.381172  5.376000
H                    0    1.003137  0.430404  6.027848
H                    0    2.274371  -0.778212  5.819946
C                    0    0.295565  -1.471662  5.315411
H                    0    -0.012794  -1.743819  6.336739
H                    0    0.684390  -2.386611  4.853212

C H O N P S 0
def2tzvp
****
Pd 0
SDD
****

Pd 0
SDD

eps=3.06095
epsinf=1.36375
HBondAcidity=0.00
HBondBasicity=0.205
SurfaceTensionAtInterface=24.855
CarbonAromaticity=0.000
ElectronegativeHalogenicity=0.000



