%nprocshared=8
%mem=8GB
%chk=IRC-12-function.chk
# genecp scrf=(smd,solvent=generic,read) nosymm em=gd3bj pbe1pbe 

IRC-12-function

0 1
Pd                    0    -0.900833  -0.462858  2.040390
P                    0    -0.656925  1.160427  0.379512
O                    0    1.758665  -4.238963  1.344590
S                    0    0.480517  -3.653861  0.784986
N                    0    0.751468  -2.988029  -0.760067
C                    0    0.956766  -1.524786  -0.715180
H                    0    0.707786  -1.209161  0.311317
C                    0    0.036458  -0.764730  -1.652172
C                    0    -0.426932  0.549734  -1.364716
C                    0    2.419417  -1.157536  -0.950497
C                    0    1.585462  -3.777744  -1.661826
C                    0    0.665079  2.412156  0.799442
C                    0    -2.237069  2.153344  0.404621
C                    0    -0.882776  -0.604517  -3.904040
C                    0    -1.236197  0.719397  -3.678019
C                    0    -0.955455  1.302093  -2.424532
C                    0    -0.220939  -1.311511  -2.904887
C                    0    -0.583151  -5.142437  0.382441
C                    0    -1.261430  -5.419084  1.727257
C                    0    -1.621797  -4.773553  -0.661496
C                    0    0.277926  -6.328340  -0.022953
C                    0    3.385558  -1.667422  -0.076063
C                    0    4.722923  -1.325043  -0.213039
C                    0    5.150321  -0.470715  -1.239584
C                    0    4.187472  0.000763  -2.138467
C                    0    2.845413  -0.339206  -1.997675
H                    0    -1.091639  -1.083528  -4.854311
H                    0    0.105112  -2.323542  -3.116580
H                    0    -1.883295  -4.572736  2.039993
H                    0    -0.524978  -5.626546  2.512023
H                    0    -1.908933  -6.298403  1.630681
H                    0    -2.327228  -5.606810  -0.773374
H                    0    -1.173153  -4.572614  -1.638103
H                    0    -2.196616  -3.895271  -0.360381
H                    0    -0.318760  -7.244990  0.057750
H                    0    1.145415  -6.418026  0.638694
H                    0    0.633380  -6.249579  -1.053650
H                    0    3.082278  -2.347777  0.715904
H                    0    2.123944  0.053097  -2.707536
H                    0    5.445329  -1.704265  0.504763
H                    0    4.492585  0.628602  -2.971635
H                    0    2.316782  -4.375668  -1.104080
H                    0    0.968465  -4.444215  -2.273830
H                    0    2.142673  -3.114794  -2.326423
C                    0    -3.432399  1.535549  -0.323407
C                    0    -2.602410  2.422831  1.871386
H                    0    -2.012640  3.105489  -0.083424
C                    0    -4.641396  2.466276  -0.236957
H                    0    -3.678215  0.570920  0.129708
H                    0    -3.196045  1.344612  -1.373788
C                    0    -3.807774  3.356952  1.960455
H                    0    -2.837330  1.465378  2.357351
H                    0    -1.753103  2.845583  2.422363
C                    0    -5.005166  2.779932  1.211089
H                    0    -5.493585  2.008108  -0.754834
H                    0    -4.414987  3.405316  -0.763714
H                    0    -4.061724  3.534601  3.013302
H                    0    -3.542615  4.333544  1.528203
H                    0    -5.854590  3.473806  1.252852
H                    0    -5.326654  1.853089  1.708988
C                    0    6.570444  -0.082296  -1.365943
C                    0    6.926305  1.205841  -1.788627
C                    0    7.595231  -0.988131  -1.060024
C                    0    8.262198  1.575778  -1.903644
H                    0    6.146282  1.931287  -2.004988
C                    0    8.931225  -0.618063  -1.173486
H                    0    7.341349  -1.999185  -0.752519
C                    0    9.271012  0.665243  -1.596371
H                    0    8.515860  2.582737  -2.224737
H                    0    9.710300  -1.338408  -0.938085
H                    0    10.314839  0.954162  -1.684476
O                    0    -1.866186  1.516953  -4.571109
C                    0    -2.209301  0.952104  -5.820282
H                    0    -2.716082  1.742429  -6.376468
H                    0    -1.319097  0.631423  -6.375919
H                    0    -2.890741  0.100649  -5.698940
O                    0    -1.291497  2.609938  -2.227692
C                    0    -0.535467  3.554489  -2.989008
H                    0    0.528522  3.467290  -2.731738
H                    0    -0.649434  3.338900  -4.057367
C                    0    -1.049980  4.926201  -2.665733
C                    0    -2.420645  5.143221  -2.506294
C                    0    -0.168758  5.999501  -2.528598
C                    0    -2.899804  6.414376  -2.204376
H                    0    -3.105130  4.306175  -2.607237
C                    0    -0.648652  7.274370  -2.237095
H                    0    0.900941  5.834067  -2.639537
C                    0    -2.015476  7.483534  -2.069731
H                    0    -3.967392  6.570782  -2.072926
H                    0    0.047988  8.101385  -2.128137
H                    0    -2.390380  8.475199  -1.831040
C                    0    1.983570  2.031728  0.124291
C                    0    0.309075  3.876149  0.533353
H                    0    0.771881  2.272192  1.884411
C                    0    3.122610  2.991226  0.459315
H                    0    1.836378  2.025503  -0.964231
H                    0    2.268585  1.011442  0.397415
C                    0    1.461884  4.810471  0.896890
H                    0    0.058680  4.012935  -0.522719
H                    0    -0.578479  4.168247  1.103164
C                    0    2.741946  4.435565  0.159033
H                    0    4.017566  2.695487  -0.102594
H                    0    3.381103  2.903013  1.523201
H                    0    1.171462  5.843960  0.669047
H                    0    1.642545  4.762358  1.980931
H                    0    3.559118  5.114223  0.434183
H                    0    2.583518  4.553603  -0.924213
C                    0    -2.132424  -1.402986  0.813257
H                    0    -1.703356  -1.656614  -0.160723
C                    0    -3.427930  -1.730015  0.980115
H                    0    -3.933296  -1.539866  1.928899
C                    0    -4.279812  -2.321388  -0.062252
C                    0    -5.430780  -3.048548  0.285127
C                    0    -6.236056  -3.639071  -0.675016
C                    0    -5.919255  -3.515213  -2.032404
C                    0    -4.792182  -2.778536  -2.405680
C                    0    -3.996582  -2.187573  -1.428271
H                    0    -5.687558  -3.161123  1.336649
H                    0    -7.119874  -4.206164  -0.396494
H                    0    -4.533214  -2.644168  -3.450897
H                    0    -3.137623  -1.598870  -1.739924
O                    0    -6.762601  -4.127852  -2.901313
C                    0    -6.466429  -4.025186  -4.274872
H                    0    -6.486770  -2.981991  -4.617850
H                    0    -5.487308  -4.462439  -4.512320
H                    0    -7.244397  -4.586799  -4.796256
O                    0    0.274718  0.478897  3.600666
C                    0    -1.550371  -1.705720  3.675572
H                    0    -1.188665  -2.715436  3.481901
H                    0    -2.628856  -1.573306  3.611413
C                    0    -0.850212  -0.924482  4.610074
H                    0    -1.376025  -0.090869  5.069986
C                    0    1.577086  0.161114  4.019507
C                    0    2.260138  -0.834714  3.072207
C                    0    3.719846  -1.106316  3.427080
C                    0    4.520134  0.191935  3.468745
C                    0    3.881532  1.200756  4.421522
C                    0    2.415477  1.447540  4.063690
H                    0    3.781865  -1.609883  4.401966
H                    0    1.688799  -1.769724  3.027586
H                    0    2.212421  -0.396979  2.066376
H                    0    5.560080  -0.004352  3.760067
H                    0    4.551453  0.620092  2.455652
H                    0    3.958807  0.828983  5.453188
H                    0    4.431955  2.150351  4.394078
H                    0    1.950089  2.151671  4.765607
H                    0    2.369011  1.909484  3.071815
H                    0    4.156760  -1.801180  2.700369
C                    0    1.421845  -0.411626  5.436804
H                    0    1.114013  0.405548  6.102691
H                    0    2.345129  -0.837138  5.842364
C                    0    0.322775  -1.454626  5.365564
H                    0    -0.030915  -1.721449  6.371678
H                    0    0.678006  -2.378770  4.895705

C H O N P S 0
def2tzvp
****
Pd 0
SDD
****

Pd 0
SDD

eps=3.06095
epsinf=1.36375
HBondAcidity=0.00
HBondBasicity=0.205
SurfaceTensionAtInterface=24.855
CarbonAromaticity=0.000
ElectronegativeHalogenicity=0.000



