%nprocshared=8
%mem=8GB
%chk=IRC-20-function.chk
# genecp scrf=(smd,solvent=generic,read) nosymm em=gd3bj pbe1pbe 

IRC-20-function

0 1
Pd                    0    -0.911112  -0.468810  2.024733
P                    0    -0.652467  1.165481  0.372615
O                    0    1.759837  -4.238614  1.343659
S                    0    0.480172  -3.653573  0.784974
N                    0    0.751534  -2.987399  -0.760703
C                    0    0.955503  -1.523741  -0.715837
H                    0    0.701378  -1.207721  0.309878
C                    0    0.037038  -0.762217  -1.654107
C                    0    -0.422471  0.555273  -1.370094
C                    0    2.418575  -1.156634  -0.949562
C                    0    1.585493  -3.777019  -1.662197
C                    0    0.664494  2.422714  0.790391
C                    0    -2.234847  2.158615  0.400223
C                    0    -0.883717  -0.604531  -3.905518
C                    0    -1.237055  0.719597  -3.680822
C                    0    -0.954562  1.303390  -2.429019
C                    0    -0.222018  -1.310881  -2.905491
C                    0    -0.582669  -5.142602  0.382395
C                    0    -1.260655  -5.418230  1.727685
C                    0    -1.621742  -4.773503  -0.661150
C                    0    0.278081  -6.328634  -0.022994
C                    0    3.385031  -1.667026  -0.075686
C                    0    4.722642  -1.324950  -0.212693
C                    0    5.150343  -0.470673  -1.239219
C                    0    4.187446  0.000765  -2.138079
C                    0    2.845345  -0.338784  -1.997024
H                    0    -1.093688  -1.084872  -4.854888
H                    0    0.101792  -2.324003  -3.115632
H                    0    -1.877927  -4.569229  2.042218
H                    0    -0.523838  -5.628752  2.511297
H                    0    -1.911135  -6.295379  1.630815
H                    0    -2.327206  -5.606769  -0.772961
H                    0    -1.173456  -4.572207  -1.637891
H                    0    -2.196320  -3.895309  -0.359186
H                    0    -0.318362  -7.245408  0.058542
H                    0    1.146014  -6.417741  0.638223
H                    0    0.633006  -6.250382  -1.053973
H                    0    3.081259  -2.349565  0.714422
H                    0    2.123928  0.053197  -2.707069
H                    0    5.445502  -1.705436  0.504101
H                    0    4.492654  0.628084  -2.971615
H                    0    2.316964  -4.374689  -1.104192
H                    0    0.968691  -4.444148  -2.273773
H                    0    2.142459  -3.114582  -2.327592
C                    0    -3.430540  1.536286  -0.324055
C                    0    -2.600534  2.424998  1.868152
H                    0    -2.018276  3.112881  -0.087284
C                    0    -4.641310  2.464942  -0.237247
H                    0    -3.672797  0.571520  0.131120
H                    0    -3.195709  1.344312  -1.374670
C                    0    -3.807494  3.357131  1.959600
H                    0    -2.831982  1.466498  2.353208
H                    0    -1.752212  2.852063  2.418366
C                    0    -5.004758  2.779013  1.210834
H                    0    -5.493484  2.005501  -0.754102
H                    0    -4.416598  3.404097  -0.764702
H                    0    -4.061262  3.533625  3.012790
H                    0    -3.544352  4.334523  1.527675
H                    0    -5.854658  3.472407  1.252821
H                    0    -5.325118  1.852074  1.709103
C                    0    6.570473  -0.082355  -1.365737
C                    0    6.926311  1.205780  -1.788545
C                    0    7.595322  -0.988130  -1.059819
C                    0    8.262190  1.575767  -1.903629
H                    0    6.146254  1.931055  -2.005405
C                    0    8.931303  -0.618000  -1.173323
H                    0    7.341499  -1.999309  -0.752653
C                    0    9.271048  0.665307  -1.596261
H                    0    8.515812  2.582623  -2.225076
H                    0    9.710424  -1.338368  -0.938143
H                    0    10.314862  0.954199  -1.684572
O                    0    -1.867436  1.516980  -4.573813
C                    0    -2.210251  0.951444  -5.822250
H                    0    -2.717029  1.741169  -6.379351
H                    0    -1.319959  0.630245  -6.377583
H                    0    -2.891595  0.099921  -5.700578
O                    0    -1.291677  2.611149  -2.231253
C                    0    -0.535432  3.555278  -2.990800
H                    0    0.528720  3.468130  -2.733513
H                    0    -0.648451  3.341030  -4.059672
C                    0    -1.049849  4.926800  -2.666768
C                    0    -2.420493  5.143403  -2.506682
C                    0    -0.168796  6.000140  -2.529337
C                    0    -2.899804  6.414424  -2.204476
H                    0    -3.104623  4.306077  -2.607476
C                    0    -0.648771  7.274819  -2.237291
H                    0    0.900899  5.834847  -2.640806
C                    0    -2.015634  7.483716  -2.069795
H                    0    -3.967407  6.570597  -2.072850
H                    0    0.047717  8.101992  -2.128393
H                    0    -2.390710  8.475319  -1.831069
C                    0    1.984763  2.036508  0.123257
C                    0    0.311551  3.885118  0.526319
H                    0    0.771888  2.296916  1.876092
C                    0    3.124490  2.993205  0.460724
H                    0    1.840516  2.028909  -0.965476
H                    0    2.264281  1.014579  0.397030
C                    0    1.464266  4.815985  0.894752
H                    0    0.062998  4.023127  -0.529826
H                    0    -0.578102  4.175330  1.094000
C                    0    2.744976  4.437870  0.159451
H                    0    4.020704  2.697304  -0.099053
H                    0    3.381061  2.905284  1.525601
H                    0    1.178477  5.850965  0.668065
H                    0    1.642362  4.766140  1.979417
H                    0    3.562786  5.115903  0.434187
H                    0    2.587619  4.554561  -0.924008
C                    0    -2.135563  -1.413386  0.815212
H                    0    -1.706638  -1.661878  -0.160695
C                    0    -3.431274  -1.736729  0.982644
H                    0    -3.928222  -1.556702  1.937457
C                    0    -4.282753  -2.321337  -0.061835
C                    0    -5.433336  -3.049215  0.284520
C                    0    -6.237669  -3.639870  -0.676030
C                    0    -5.919995  -3.515583  -2.032960
C                    0    -4.792985  -2.778815  -2.405679
C                    0    -3.998303  -2.187293  -1.427741
H                    0    -5.689677  -3.162377  1.336089
H                    0    -7.121312  -4.207723  -0.398314
H                    0    -4.533278  -2.644691  -3.450794
H                    0    -3.139122  -1.598509  -1.738663
O                    0    -6.763407  -4.128605  -2.902514
C                    0    -6.466317  -4.025612  -4.275339
H                    0    -6.486295  -2.982353  -4.618427
H                    0    -5.486912  -4.462619  -4.512524
H                    0    -7.243770  -4.587148  -4.797721
O                    0    0.198804  0.337339  3.717582
C                    0    -1.488232  -1.616494  3.628984
H                    0    -1.142625  -2.650749  3.553710
H                    0    -2.573481  -1.557859  3.740433
C                    0    -0.721373  -0.775971  4.571648
H                    0    -1.331465  -0.069082  5.137383
C                    0    1.583649  0.124137  4.063199
C                    0    2.250146  -0.847697  3.084960
C                    0    3.717772  -1.105357  3.423442
C                    0    4.508043  0.198392  3.465299
C                    0    3.855500  1.205011  4.411641
C                    0    2.377735  1.437069  4.060300
H                    0    3.790569  -1.615317  4.393695
H                    0    1.691167  -1.788883  3.040209
H                    0    2.181850  -0.400040  2.084725
H                    0    5.546906  0.011200  3.765169
H                    0    4.543379  0.623750  2.451506
H                    0    3.938783  0.844268  5.446087
H                    0    4.389797  2.162756  4.375020
H                    0    1.918632  2.146214  4.760572
H                    0    2.323292  1.885295  3.062867
H                    0    4.150691  -1.792741  2.688356
C                    0    1.468999  -0.434586  5.481576
H                    0    1.190961  0.388282  6.153423
H                    0    2.398162  -0.871413  5.855276
C                    0    0.341700  -1.442064  5.401979
H                    0    -0.057150  -1.710216  6.386440
H                    0    0.672948  -2.366605  4.915758

C H O N P S 0
def2tzvp
****
Pd 0
SDD
****

Pd 0
SDD

eps=3.06095
epsinf=1.36375
HBondAcidity=0.00
HBondBasicity=0.205
SurfaceTensionAtInterface=24.855
CarbonAromaticity=0.000
ElectronegativeHalogenicity=0.000



