%nprocshared=8
%mem=8GB
%chk=IRC-11-function.chk
# genecp scrf=(smd,solvent=generic,read) nosymm em=gd3bj pbe1pbe 

IRC-11-function

0 1
Pd                    0    -0.992570  -0.542407  2.242649
P                    0    -0.750932  1.079056  0.580536
O                    0    1.665072  -4.319693  1.544685
S                    0    0.387110  -3.734593  0.984927
N                    0    0.658057  -3.068832  -0.560026
C                    0    0.863506  -1.605646  -0.515122
H                    0    0.615183  -1.290072  0.511484
C                    0    -0.057078  -0.845806  -1.451913
C                    0    -0.521054  0.468207  -1.163934
C                    0    2.326100  -1.238370  -0.750689
C                    0    1.492046  -3.858566  -1.461816
C                    0    0.571716  2.330106  1.000562
C                    0    -2.330858  2.071817  0.605263
C                    0    -0.976028  -0.685209  -3.703863
C                    0    -1.329497  0.638658  -3.477616
C                    0    -1.049045  1.221174  -2.223874
C                    0    -0.314176  -1.392300  -2.704837
C                    0    -0.676645  -5.223121  0.582381
C                    0    -1.354980  -5.499902  1.927123
C                    0    -1.715231  -4.854265  -0.461613
C                    0    0.184490  -6.408999  0.177006
C                    0    3.292216  -1.748186  0.123805
C                    0    4.629545  -1.405747  -0.013161
C                    0    5.056893  -0.551409  -1.039711
C                    0    4.094043  -0.079942  -1.938598
C                    0    2.751990  -0.419977  -1.797835
H                    0    -1.184703  -1.164009  -4.654279
H                    0    0.012228  -2.404161  -2.916765
H                    0    -1.977472  -4.653904  2.239558
H                    0    -0.618591  -5.706893  2.712072
H                    0    -2.002045  -6.379540  1.830596
H                    0    -2.420662  -5.687519  -0.573489
H                    0    -1.266537  -4.653388  -1.438204
H                    0    -2.290074  -3.975962  -0.160614
H                    0    -0.412223  -7.325637  0.257594
H                    0    1.051907  -6.498753  0.838730
H                    0    0.540035  -6.330177  -0.853647
H                    0    2.989002  -2.428314  0.915970
H                    0    2.030504  -0.027639  -2.507664
H                    0    5.351907  -1.784812  0.704756
H                    0    4.399136  0.547963  -2.771721
H                    0    2.223337  -4.456532  -0.904100
H                    0    0.875019  -4.524944  -2.073877
H                    0    2.049298  -3.195557  -2.126309
C                    0    -3.526128  1.454690  -0.123336
C                    0    -2.696138  2.341815  2.071849
H                    0    -2.105333  3.023670  0.117147
C                    0    -4.734828  2.385782  -0.036998
H                    0    -3.772492  0.490077  0.329464
H                    0    -3.289509  1.263899  -1.173672
C                    0    -3.901281  3.276226  2.160520
H                    0    -2.931390  1.384560  2.558117
H                    0    -1.846672  2.764225  2.622728
C                    0    -5.098682  2.699397  1.411029
H                    0    -5.587028  1.927845  -0.555051
H                    0    -4.508103  3.324795  -0.563648
H                    0    -4.155304  3.454078  3.213302
H                    0    -3.635789  4.252684  1.728200
H                    0    -5.948012  3.393376  1.452734
H                    0    -5.420376  1.772580  1.908862
C                    0    6.477013  -0.162973  -1.166047
C                    0    6.832877  1.125163  -1.588716
C                    0    7.501790  -1.068814  -0.860116
C                    0    8.168772  1.495093  -1.703718
H                    0    6.052858  1.850628  -1.805024
C                    0    8.837786  -0.698754  -0.973565
H                    0    7.247900  -2.079853  -0.552569
C                    0    9.177579  0.584551  -1.396448
H                    0    8.422440  2.502063  -2.024771
H                    0    9.616855  -1.419093  -0.738127
H                    0    10.221408  0.873474  -1.484522
O                    0    -1.959408  1.436252  -4.370736
C                    0    -2.302546  0.871497  -5.620011
H                    0    -2.809331  1.661897  -6.176078
H                    0    -1.412347  0.550893  -6.175685
H                    0    -2.983990  0.020042  -5.498723
O                    0    -1.384902  2.529052  -2.027168
C                    0    -0.628917  3.473634  -2.788770
H                    0    0.435056  3.386441  -2.531520
H                    0    -0.743032  3.257829  -3.857050
C                    0    -1.143433  4.845392  -2.465648
C                    0    -2.514101  5.062490  -2.306333
C                    0    -0.262183  5.918686  -2.328566
C                    0    -2.993234  6.333673  -2.004485
H                    0    -3.198640  4.225486  -2.407295
C                    0    -0.742060  7.193592  -2.037172
H                    0    0.807516  5.753222  -2.439417
C                    0    -2.108879  7.402808  -1.869847
H                    0    -4.060822  6.490120  -1.873089
H                    0    -0.045394  8.020584  -1.928223
H                    0    -2.483757  8.394491  -1.631194
C                    0    1.889901  1.950348  0.324344
C                    0    0.215257  3.794212  0.734243
H                    0    0.678324  2.188101  2.085423
C                    0    3.028875  2.910203  0.658974
H                    0    1.742329  1.944243  -0.764155
H                    0    2.175604  0.930273  0.597405
C                    0    1.368071  4.728970  1.097132
H                    0    -0.035457  3.930950  -0.321789
H                    0    -0.671990  4.086509  1.304414
C                    0    2.648009  4.354498  0.358869
H                    0    3.923646  2.614523  0.096731
H                    0    3.287693  2.821956  1.722721
H                    0    1.077057  5.762277  0.869187
H                    0    1.549121  4.681047  2.181083
H                    0    3.465107  5.033254  0.634010
H                    0    2.489363  4.472707  -0.724338
C                    0    -2.225355  -1.482716  1.013501
H                    0    -1.796192  -1.737203  0.039824
C                    0    -3.521024  -1.809713  1.179705
H                    0    -4.027702  -1.618167  2.127581
C                    0    -4.372850  -2.401952  0.137571
C                    0    -5.523833  -3.129057  0.485109
C                    0    -6.329213  -3.719624  -0.474948
C                    0    -6.012538  -3.595830  -1.832396
C                    0    -4.885451  -2.859194  -2.205773
C                    0    -4.089720  -2.268269  -1.228453
H                    0    -5.780651  -3.241507  1.536636
H                    0    -7.213036  -4.286642  -0.196305
H                    0    -4.626578  -2.724848  -3.251011
H                    0    -3.230753  -1.679614  -1.540181
O                    0    -6.855909  -4.208428  -2.701208
C                    0    -6.559857  -4.105845  -4.074855
H                    0    -6.580236  -3.062669  -4.417856
H                    0    -5.580773  -4.543140  -4.312331
H                    0    -7.337891  -4.667482  -4.596099
O                    0    0.189419  0.414870  3.784319
C                    0    -1.652893  -1.799584  3.881461
H                    0    -1.288675  -2.805335  3.674456
H                    0    -2.728100  -1.657564  3.797175
C                    0    -0.957274  -1.021551  4.812524
H                    0    -1.474473  -0.176082  5.259642
C                    0    1.482774  0.085467  4.213564
C                    0    2.167781  -0.913246  3.270007
C                    0    3.626387  -1.187028  3.627546
C                    0    4.428381  0.110210  3.669355
C                    0    3.791434  1.119170  4.622979
C                    0    2.326706  1.368257  4.264032
H                    0    3.686551  -1.689787  4.603024
H                    0    1.594941  -1.847481  3.224864
H                    0    2.123274  -0.476516  2.263608
H                    0    5.468318  -0.087543  3.959843
H                    0    4.459524  0.538822  2.656416
H                    0    3.867718  0.745858  5.654224
H                    0    4.343820  2.067738  4.596947
H                    0    1.860909  2.071877  4.966284
H                    0    2.281852  1.832144  3.272972
H                    0    4.063580  -1.883056  2.902000
C                    0    1.321145  -0.489070  5.630035
H                    0    1.009043  0.327359  6.294889
H                    0    2.243905  -0.912296  6.039740
C                    0    0.226271  -1.537244  5.560152
H                    0    -0.121724  -1.804188  6.568560
H                    0    0.585209  -2.460867  5.092002

C H O N P S 0
def2tzvp
****
Pd 0
SDD
****

Pd 0
SDD

eps=3.06095
epsinf=1.36375
HBondAcidity=0.00
HBondBasicity=0.205
SurfaceTensionAtInterface=24.855
CarbonAromaticity=0.000
ElectronegativeHalogenicity=0.000



