%nprocshared=8
%mem=8GB
%chk=IRC-9-function.chk
# genecp scrf=(smd,solvent=generic,read) nosymm em=gd3bj pbe1pbe 

IRC-9-function

0 1
Pd                    0    -0.895638  -0.459349  2.047515
P                    0    -0.658687  1.158316  0.382891
O                    0    1.758189  -4.239096  1.345179
S                    0    0.480585  -3.654019  0.785099
N                    0    0.751542  -2.988428  -0.759660
C                    0    0.957297  -1.525339  -0.714715
H                    0    0.710280  -1.209868  0.312111
C                    0    0.036149  -0.765944  -1.651094
C                    0    -0.429074  0.547143  -1.362056
C                    0    2.419781  -1.158009  -0.950808
C                    0    1.585573  -3.778225  -1.661434
C                    0    0.665245  2.408021  0.803004
C                    0    -2.238189  2.150731  0.406829
C                    0    -0.882174  -0.604591  -3.903224
C                    0    -1.235799  0.719166  -3.676516
C                    0    -0.955975  1.301323  -2.422254
C                    0    -0.220281  -1.311856  -2.904451
C                    0    -0.583283  -5.142490  0.382596
C                    0    -1.261714  -5.419516  1.727204
C                    0    -1.621753  -4.773740  -0.661513
C                    0    0.278017  -6.328314  -0.022657
C                    0    3.385865  -1.667661  -0.076191
C                    0    4.723115  -1.325076  -0.213138
C                    0    5.150349  -0.470743  -1.239722
C                    0    4.187496  0.000665  -2.138634
C                    0    2.845462  -0.339515  -1.997919
H                    0    -1.090415  -1.082997  -4.853929
H                    0    0.106895  -2.323361  -3.116842
H                    0    -1.885617  -4.574302  2.038945
H                    0    -0.525432  -5.625327  2.512573
H                    0    -1.907726  -6.299932  1.630888
H                    0    -2.327186  -5.606997  -0.773299
H                    0    -1.172955  -4.573061  -1.638081
H                    0    -2.196622  -3.895374  -0.360770
H                    0    -0.318703  -7.244944  0.057799
H                    0    1.145269  -6.418099  0.639275
H                    0    0.633789  -6.249438  -1.053206
H                    0    3.082794  -2.347307  0.716399
H                    0    2.123937  0.052850  -2.707701
H                    0    5.445394  -1.703758  0.505042
H                    0    4.492554  0.628669  -2.971690
H                    0    2.316821  -4.376193  -1.103693
H                    0    0.968536  -4.444515  -2.273548
H                    0    2.142905  -3.115138  -2.325756
C                    0    -3.433324  1.534918  -0.322917
C                    0    -2.603366  2.421820  1.873033
H                    0    -2.010518  3.101987  -0.081469
C                    0    -4.641403  2.466782  -0.236913
H                    0    -3.680840  0.570376  0.129299
H                    0    -3.196140  1.344320  -1.373138
C                    0    -3.808061  3.356834  1.960808
H                    0    -2.839276  1.464995  2.359966
H                    0    -1.753593  2.843626  2.423679
C                    0    -5.005466  2.780378  1.211051
H                    0    -5.493616  2.009300  -0.755334
H                    0    -4.414005  3.405701  -0.763402
H                    0    -4.062289  3.535196  3.013425
H                    0    -3.541881  4.332981  1.528260
H                    0    -5.854591  3.474592  1.252552
H                    0    -5.327630  1.853638  1.708758
C                    0    6.570454  -0.082263  -1.366018
C                    0    6.926305  1.205866  -1.788682
C                    0    7.595215  -0.988095  -1.060017
C                    0    8.262200  1.575797  -1.903647
H                    0    6.146282  1.931348  -2.004909
C                    0    8.931209  -0.618031  -1.173429
H                    0    7.341318  -1.999078  -0.752304
C                    0    9.271001  0.665262  -1.596343
H                    0    8.515870  2.582788  -2.224634
H                    0    9.710280  -1.338313  -0.937825
H                    0    10.314828  0.954224  -1.684318
O                    0    -1.865550  1.516813  -4.569730
C                    0    -2.208675  0.952144  -5.819181
H                    0    -2.715479  1.742607  -6.375117
H                    0    -1.318456  0.631651  -6.374861
H                    0    -2.890082  0.100654  -5.697956
O                    0    -1.291428  2.609284  -2.225820
C                    0    -0.535589  3.553892  -2.988089
H                    0    0.528374  3.466700  -2.730980
H                    0    -0.650098  3.337601  -4.056193
C                    0    -1.050082  4.925758  -2.665285
C                    0    -2.420763  5.143023  -2.506284
C                    0    -0.168778  5.999035  -2.528310
C                    0    -2.899849  6.414265  -2.204611
H                    0    -3.105411  4.306111  -2.607376
C                    0    -0.648627  7.274028  -2.237196
H                    0    0.900914  5.833497  -2.639042
C                    0    -2.015440  7.483355  -2.069992
H                    0    -3.967458  6.570796  -2.073483
H                    0    0.048082  8.100992  -2.128401
H                    0    -2.390300  8.475101  -1.831594
C                    0    1.982807  2.029605  0.124650
C                    0    0.307847  3.872308  0.536256
H                    0    0.771474  2.261876  1.887634
C                    0    3.121632  2.990212  0.458439
H                    0    1.834461  2.023711  -0.963803
H                    0    2.269903  1.009958  0.397582
C                    0    1.460633  4.808003  0.897774
H                    0    0.056452  4.008930  -0.519696
H                    0    -0.578795  4.164981  1.107143
C                    0    2.740301  4.434394  0.158663
H                    0    4.016027  2.694683  -0.104497
H                    0    3.381139  2.901950  1.521904
H                    0    1.168389  5.840915  0.669524
H                    0    1.642494  4.760574  1.981540
H                    0    3.557243  5.113398  0.433680
H                    0    2.581145  4.552884  -0.924465
C                    0    -2.130841  -1.400290  0.814520
H                    0    -1.701362  -1.656760  -0.158440
C                    0    -3.426937  -1.726932  0.979154
H                    0    -3.936329  -1.532407  1.925126
C                    0    -4.278579  -2.320949  -0.062524
C                    0    -5.429576  -3.047970  0.285352
C                    0    -6.235154  -3.638687  -0.674504
C                    0    -5.918757  -3.515039  -2.032082
C                    0    -4.791628  -2.778520  -2.405685
C                    0    -3.995633  -2.187624  -1.428562
H                    0    -5.686446  -3.160161  1.336898
H                    0    -7.118940  -4.205610  -0.395578
H                    0    -4.532908  -2.644324  -3.450969
H                    0    -3.136608  -1.599120  -1.740436
O                    0    -6.762212  -4.127554  -2.900679
C                    0    -6.466324  -4.025346  -4.274493
H                    0    -6.486777  -2.982275  -4.617720
H                    0    -5.487289  -4.462758  -4.511880
H                    0    -7.244428  -4.587172  -4.795402
O                    0    0.298646  0.528577  3.551518
C                    0    -1.577878  -1.745521  3.692957
H                    0    -1.208719  -2.743516  3.460752
H                    0    -2.646317  -1.584993  3.570085
C                    0    -0.890427  -0.972794  4.616768
H                    0    -1.391248  -0.104855  5.038987
C                    0    1.574400  0.176425  4.001705
C                    0    2.263348  -0.827952  3.065603
C                    0    3.719644  -1.106292  3.428840
C                    0    4.525251  0.188769  3.471002
C                    0    3.891517  1.197984  4.426266
C                    0    2.429423  1.451911  4.064905
H                    0    3.775769  -1.607314  4.405577
H                    0    1.687501  -1.760605  3.019149
H                    0    2.225596  -0.393128  2.058119
H                    0    5.565092  -0.012009  3.760005
H                    0    4.556235  0.618326  2.458397
H                    0    3.965657  0.821599  5.456669
H                    0    4.447805  2.144505  4.403161
H                    0    1.962941  2.154564  4.767863
H                    0    2.388114  1.919841  3.075540
H                    0    4.157378  -1.804814  2.705792
C                    0    1.399493  -0.401530  5.416369
H                    0    1.078261  0.413498  6.078758
H                    0    2.321276  -0.819546  5.834738
C                    0    0.313374  -1.460432  5.349229
H                    0    -0.023258  -1.727771  6.362080
H                    0    0.679969  -2.382777  4.884257

C H O N P S 0
def2tzvp
****
Pd 0
SDD
****

Pd 0
SDD

eps=3.06095
epsinf=1.36375
HBondAcidity=0.00
HBondBasicity=0.205
SurfaceTensionAtInterface=24.855
CarbonAromaticity=0.000
ElectronegativeHalogenicity=0.000



