%nprocshared=8
%mem=8GB
%chk=IRC-17-function.chk
# genecp scrf=(smd,solvent=generic,read) nosymm em=gd3bj pbe1pbe 

IRC-17-function

0 1
Pd                    0    -0.907591  -0.467077  2.030661
P                    0    -0.654179  1.163474  0.375065
O                    0    1.759410  -4.238757  1.344014
S                    0    0.480295  -3.653669  0.785006
N                    0    0.751500  -2.987636  -0.760478
C                    0    0.955971  -1.524114  -0.715610
H                    0    0.703660  -1.208203  0.310374
C                    0    0.036845  -0.763111  -1.653432
C                    0    -0.424073  0.553330  -1.368205
C                    0    2.418896  -1.156969  -0.949908
C                    0    1.585496  -3.777287  -1.662033
C                    0    0.664658  2.418654  0.793719
C                    0    -2.235623  2.156786  0.401718
C                    0    -0.883374  -0.604547  -3.905004
C                    0    -1.236742  0.719506  -3.679848
C                    0    -0.954871  1.302907  -2.427456
C                    0    -0.221614  -1.311121  -2.905285
C                    0    -0.582826  -5.142542  0.382456
C                    0    -1.260910  -5.418557  1.727589
C                    0    -1.621749  -4.773550  -0.661235
C                    0    0.278046  -6.328533  -0.022910
C                    0    3.385231  -1.667150  -0.075804
C                    0    4.722750  -1.324964  -0.212798
C                    0    5.150342  -0.470689  -1.239346
C                    0    4.187472  0.000759  -2.138225
C                    0    2.845389  -0.338948  -1.997273
H                    0    -1.092951  -1.084430  -4.854688
H                    0    0.102998  -2.323856  -3.115983
H                    0    -1.879911  -4.570586  2.041541
H                    0    -0.524184  -5.627912  2.511603
H                    0    -1.910224  -6.296562  1.630843
H                    0    -2.327216  -5.606806  -0.773041
H                    0    -1.173327  -4.572418  -1.637932
H                    0    -2.196390  -3.895301  -0.359599
H                    0    -0.318458  -7.245278  0.058357
H                    0    1.145828  -6.417802  0.638462
H                    0    0.633164  -6.250116  -1.053788
H                    0    3.081628  -2.348836  0.715028
H                    0    2.123949  0.053138  -2.707253
H                    0    5.445439  -1.704948  0.504392
H                    0    4.492655  0.628259  -2.971629
H                    0    2.316930  -4.375006  -1.104091
H                    0    0.968654  -4.444229  -2.273740
H                    0    2.142537  -3.114682  -2.327168
C                    0    -3.431213  1.536045  -0.323864
C                    0    -2.601237  2.424211  1.869243
H                    0    -2.016417  3.110332  -0.085987
C                    0    -4.641363  2.465407  -0.237195
H                    0    -3.674740  0.571349  0.130606
H                    0    -3.195850  1.344403  -1.374395
C                    0    -3.807590  3.357099  1.959834
H                    0    -2.834045  1.466049  2.354451
H                    0    -1.752613  2.849597  2.419927
C                    0    -5.004908  2.779351  1.210875
H                    0    -5.493550  2.006393  -0.754385
H                    0    -4.416083  3.404518  -0.764424
H                    0    -4.061440  3.534047  3.012897
H                    0    -3.543739  4.334196  1.527757
H                    0    -5.854659  3.472894  1.252779
H                    0    -5.325644  1.852442  1.709025
C                    0    6.570466  -0.082333  -1.365803
C                    0    6.926308  1.205800  -1.788577
C                    0    7.595294  -0.988121  -1.059868
C                    0    8.262190  1.575774  -1.903635
H                    0    6.146259  1.931130  -2.005264
C                    0    8.931278  -0.618009  -1.173355
H                    0    7.341450  -1.999247  -0.752552
C                    0    9.271035  0.665294  -1.596288
H                    0    8.515823  2.582666  -2.224961
H                    0    9.710387  -1.338356  -0.938066
H                    0    10.314852  0.954204  -1.684514
O                    0    -1.866994  1.516935  -4.572892
C                    0    -2.209903  0.951607  -5.821573
H                    0    -2.716683  1.741517  -6.378390
H                    0    -1.319641  0.630567  -6.377002
H                    0    -2.891276  0.100102  -5.700005
O                    0    -1.291601  2.610714  -2.230020
C                    0    -0.535463  3.554984  -2.990217
H                    0    0.528648  3.467824  -2.732990
H                    0    -0.648852  3.340272  -4.058911
C                    0    -1.049901  4.926579  -2.666439
C                    0    -2.420556  5.143330  -2.506598
C                    0    -0.168790  5.999904  -2.529105
C                    0    -2.899817  6.414395  -2.204494
H                    0    -3.104804  4.306101  -2.607470
C                    0    -0.648743  7.274653  -2.237263
H                    0    0.900905  5.834565  -2.640405
C                    0    -2.015593  7.483642  -2.069823
H                    0    -3.967420  6.570648  -2.072961
H                    0    0.047793  8.101777  -2.128369
H                    0    -2.390617  8.475272  -1.831142
C                    0    1.984374  2.034726  0.123654
C                    0    0.310685  3.881693  0.529011
H                    0    0.772152  2.288121  1.879128
C                    0    3.123798  2.992516  0.460223
H                    0    1.838947  2.027731  -0.964978
H                    0    2.266006  1.013387  0.397034
C                    0    1.463360  4.813960  0.895487
H                    0    0.061444  4.019045  -0.527134
H                    0    -0.578257  4.172615  1.097369
C                    0    2.743857  4.437048  0.159267
H                    0    4.019581  2.696674  -0.100288
H                    0    3.381081  2.904571  1.524743
H                    0    1.175803  5.848353  0.668260
H                    0    1.642447  4.764932  1.979930
H                    0    3.561418  5.115326  0.434169
H                    0    2.586142  4.554218  -0.924118
C                    0    -2.134343  -1.408895  0.814198
H                    0    -1.705227  -1.659102  -0.160980
C                    0    -3.429840  -1.734188  0.981718
H                    0    -3.929512  -1.550676  1.934533
C                    0    -4.281559  -2.321393  -0.061931
C                    0    -5.432328  -3.049001  0.284788
C                    0    -6.237056  -3.639574  -0.675624
C                    0    -5.919725  -3.515458  -2.032729
C                    0    -4.792698  -2.778725  -2.405649
C                    0    -3.997666  -2.187423  -1.427908
H                    0    -5.688843  -3.161982  1.336334
H                    0    -7.120772  -4.207131  -0.397594
H                    0    -4.533262  -2.644497  -3.450799
H                    0    -3.138598  -1.598650  -1.739143
O                    0    -6.763113  -4.128339  -2.902056
C                    0    -6.466321  -4.025537  -4.275149
H                    0    -6.486440  -2.982325  -4.618263
H                    0    -5.487007  -4.462634  -4.512377
H                    0    -7.243937  -4.587153  -4.797152
O                    0    0.227890  0.391769  3.675931
C                    0    -1.510451  -1.647576  3.644261
H                    0    -1.160775  -2.675392  3.528071
H                    0    -2.597414  -1.563874  3.692148
C                    0    -0.772179  -0.832732  4.586258
H                    0    -1.349954  -0.074671  5.114620
C                    0    1.581218  0.137838  4.046595
C                    0    2.254303  -0.843076  3.080323
C                    0    3.718941  -1.105714  3.424844
C                    0    4.512768  0.196106  3.466449
C                    0    3.865686  1.203673  4.415226
C                    0    2.392451  1.441301  4.061496
H                    0    3.787846  -1.613161  4.396905
H                    0    1.690723  -1.781967  3.036191
H                    0    2.193359  -0.399723  2.077705
H                    0    5.552163  0.005717  3.762819
H                    0    4.546241  0.622464  2.452879
H                    0    3.946706  0.838912  5.448688
H                    0    4.406051  2.158375  4.381874
H                    0    1.930741  2.148343  4.762449
H                    0    2.340990  1.895030  3.066254
H                    0    4.153561  -1.795858  2.692969
C                    0    1.451961  -0.425835  5.465153
H                    0    1.162431  0.394967  6.134664
H                    0    2.378811  -0.858467  5.851284
C                    0    0.335069  -1.446462  5.388499
H                    0    -0.046841  -1.713920  6.381494
H                    0    0.674521  -2.371068  4.908304

C H O N P S 0
def2tzvp
****
Pd 0
SDD
****

Pd 0
SDD

eps=3.06095
epsinf=1.36375
HBondAcidity=0.00
HBondBasicity=0.205
SurfaceTensionAtInterface=24.855
CarbonAromaticity=0.000
ElectronegativeHalogenicity=0.000



