%nprocshared=8
%mem=8GB
%chk=IRC-2-function.chk
# genecp scrf=(smd,solvent=generic,read) nosymm em=gd3bj pbe1pbe 

IRC-2-function

0 1
Pd                    0    -0.881141  -0.448380  2.067384
P                    0    -0.662681  1.152645  0.391959
O                    0    1.756884  -4.239843  1.347782
S                    0    0.480276  -3.655039  0.786106
N                    0    0.752347  -2.990357  -0.757962
C                    0    0.958527  -1.527574  -0.712867
H                    0    0.715393  -1.212443  0.314640
C                    0    0.034830  -0.769809  -1.647264
C                    0    -0.435194  0.539932  -1.354177
C                    0    2.420595  -1.159933  -0.951401
C                    0    1.586088  -3.780246  -1.660011
C                    0    0.665059  2.397933  0.809665
C                    0    -2.241549  2.143420  0.414006
C                    0    -0.880029  -0.604906  -3.900298
C                    0    -1.234898  0.718109  -3.671158
C                    0    -0.957968  1.298337  -2.414872
C                    0    -0.218198  -1.313167  -2.902544
C                    0    -0.583590  -5.143401  0.382750
C                    0    -1.263557  -5.422531  1.726028
C                    0    -1.621401  -4.774761  -0.662031
C                    0    0.278641  -6.328656  -0.022237
C                    0    3.386974  -1.669098  -0.076841
C                    0    4.723851  -1.325562  -0.213699
C                    0    5.150396  -0.470871  -1.240245
C                    0    4.187243  0.000147  -2.139063
C                    0    2.845324  -0.340856  -1.998343
H                    0    -1.086056  -1.081142  -4.852555
H                    0    0.112400  -2.323059  -3.117144
H                    0    -1.896925  -4.582731  2.032722
H                    0    -0.528436  -5.620333  2.514560
H                    0    -1.901712  -6.308666  1.629900
H                    0    -2.326763  -5.608038  -0.774091
H                    0    -1.172125  -4.574294  -1.638398
H                    0    -2.196640  -3.896390  -0.362032
H                    0    -0.318073  -7.245410  0.056478
H                    0    1.144915  -6.418969  0.640875
H                    0    0.635908  -6.248864  -1.052145
H                    0    3.084545  -2.348231  0.716357
H                    0    2.123365  0.051644  -2.707642
H                    0    5.446177  -1.703385  0.504847
H                    0    4.491868  0.628690  -2.971864
H                    0    2.316828  -4.378997  -1.102544
H                    0    0.968761  -4.445512  -2.272888
H                    0    2.144070  -3.116855  -2.323433
C                    0    -3.436400  1.532607  -0.320128
C                    0    -2.607224  2.417468  1.879017
H                    0    -2.007677  3.093305  -0.074117
C                    0    -4.641320  2.468558  -0.236114
H                    0    -3.688867  0.568506  0.129923
H                    0    -3.196781  1.342473  -1.369800
C                    0    -3.809083  3.356287  1.963100
H                    0    -2.847428  1.462064  2.366952
H                    0    -1.756046  2.835023  2.430451
C                    0    -5.006662  2.782545  1.211421
H                    0    -5.493954  2.013948  -0.756327
H                    0    -4.409935  3.406967  -0.761696
H                    0    -4.064829  3.536622  3.014965
H                    0    -3.538933  4.331086  1.530092
H                    0    -5.854321  3.478560  1.251865
H                    0    -5.331672  1.856414  1.708495
C                    0    6.570433  -0.082076  -1.366381
C                    0    6.926287  1.206059  -1.788935
C                    0    7.595170  -0.987891  -1.060194
C                    0    8.262207  1.575981  -1.903701
H                    0    6.146281  1.931600  -2.005019
C                    0    8.931172  -0.617837  -1.173395
H                    0    7.341243  -1.998836  -0.752398
C                    0    9.270984  0.665451  -1.596298
H                    0    8.515914  2.583018  -2.224507
H                    0    9.710211  -1.338083  -0.937575
H                    0    10.314816  0.954459  -1.684076
O                    0    -1.863675  1.516470  -4.564537
C                    0    -2.206412  0.952863  -5.814845
H                    0    -2.713406  1.743848  -6.369840
H                    0    -1.316013  0.633399  -6.370767
H                    0    -2.887557  0.101059  -5.694521
O                    0    -1.291554  2.606825  -2.218830
C                    0    -0.536044  3.551125  -2.983387
H                    0    0.527810  3.464348  -2.726119
H                    0    -0.651175  3.332794  -4.050880
C                    0    -1.050511  4.923692  -2.662998
C                    0    -2.421248  5.141949  -2.505704
C                    0    -0.168930  5.996930  -2.526826
C                    0    -2.900025  6.413674  -2.205471
H                    0    -3.106335  4.305353  -2.606610
C                    0    -0.648495  7.272469  -2.237454
H                    0    0.900788  5.830903  -2.636385
C                    0    -2.015290  7.482523  -2.071097
H                    0    -3.967660  6.570752  -2.075207
H                    0    0.048525  8.099205  -2.128964
H                    0    -2.389867  8.474589  -1.833595
C                    0    1.979603  2.023661  0.123375
C                    0    0.303851  3.862217  0.545424
H                    0    0.771342  2.235203  1.892849
C                    0    3.118290  2.986206  0.453896
H                    0    1.828140  2.018752  -0.964835
H                    0    2.270973  1.005042  0.394726
C                    0    1.456816  4.800293  0.901782
H                    0    0.047421  4.000900  -0.509273
H                    0    -0.579704  4.154227  1.121426
C                    0    2.734289  4.430178  0.157296
H                    0    4.010874  2.692251  -0.112826
H                    0    3.381891  2.897080  1.515996
H                    0    1.160754  5.832412  0.674666
H                    0    1.643345  4.752973  1.984628
H                    0    3.551114  5.110016  0.430719
H                    0    2.571268  4.550195  -0.925143
C                    0    -2.124881  -1.399237  0.826894
H                    0    -1.689715  -1.667618  -0.140470
C                    0    -3.425248  -1.716901  0.977824
H                    0    -3.946747  -1.507399  1.914397
C                    0    -4.274344  -2.317409  -0.063510
C                    0    -5.425284  -3.044352  0.285770
C                    0    -6.231293  -3.636666  -0.672826
C                    0    -5.915968  -3.514147  -2.030902
C                    0    -4.788502  -2.778606  -2.405683
C                    0    -3.991336  -2.187085  -1.429571
H                    0    -5.682415  -3.154599  1.337477
H                    0    -7.114952  -4.203123  -0.392604
H                    0    -4.530309  -2.645633  -3.451248
H                    0    -3.131788  -1.599511  -1.742030
O                    0    -6.760351  -4.126637  -2.898327
C                    0    -6.465918  -4.025523  -4.272761
H                    0    -6.486390  -2.982674  -4.616550
H                    0    -5.487356  -4.463544  -4.510791
H                    0    -7.244873  -4.587400  -4.792287
O                    0    0.344909  0.634187  3.433356
C                    0    -1.643226  -1.843215  3.711873
H                    0    -1.259214  -2.823133  3.436277
H                    0    -2.691917  -1.650482  3.511964
C                    0    -0.964107  -1.062724  4.604335
H                    0    -1.437441  -0.153909  4.969367
C                    0    1.568117  0.215287  3.955365
C                    0    2.269796  -0.805050  3.042224
C                    0    3.714610  -1.106559  3.433431
C                    0    4.538922  0.176299  3.482344
C                    0    3.913577  1.185853  4.441815
C                    0    2.460664  1.464756  4.067297
H                    0    3.748119  -1.602660  4.414043
H                    0    1.681146  -1.729787  2.983203
H                    0    2.263802  -0.373249  2.033162
H                    0    5.575363  -0.039893  3.772925
H                    0    4.577757  0.610399  2.471857
H                    0    3.974586  0.797190  5.468618
H                    0    4.484345  2.124242  4.433426
H                    0    1.995324  2.164313  4.774674
H                    0    2.440096  1.951365  3.086245
H                    0    4.152753  -1.815826  2.720668
C                    0    1.334439  -0.371701  5.358292
H                    0    0.968550  0.438556  6.003897
H                    0    2.253376  -0.757896  5.814538
C                    0    0.288446  -1.475636  5.298604
H                    0    -0.009618  -1.751561  6.322113
H                    0    0.687115  -2.386033  4.835555

C H O N P S 0
def2tzvp
****
Pd 0
SDD
****

Pd 0
SDD

eps=3.06095
epsinf=1.36375
HBondAcidity=0.00
HBondBasicity=0.205
SurfaceTensionAtInterface=24.855
CarbonAromaticity=0.000
ElectronegativeHalogenicity=0.000



