%nprocshared=8
%mem=8GB
%chk=IRC-19-function.chk
# genecp scrf=(smd,solvent=generic,read) nosymm em=gd3bj pbe1pbe 

IRC-19-function

0 1
Pd                    0    -0.909920  -0.468288  2.026862
P                    0    -0.653058  1.164747  0.373492
O                    0    1.759692  -4.238671  1.343788
S                    0    0.480209  -3.653605  0.784990
N                    0    0.751528  -2.987487  -0.760624
C                    0    0.955662  -1.523872  -0.715755
H                    0    0.702124  -1.207877  0.310050
C                    0    0.036968  -0.762525  -1.653870
C                    0    -0.423029  0.554614  -1.369435
C                    0    2.418686  -1.156756  -0.949684
C                    0    1.585495  -3.777115  -1.662139
C                    0    0.664540  2.421292  0.791540
C                    0    -2.235112  2.157987  0.400739
C                    0    -0.883594  -0.604537  -3.905338
C                    0    -1.236946  0.719561  -3.680476
C                    0    -0.954671  1.303213  -2.428472
C                    0    -0.221873  -1.310967  -2.905417
C                    0    -0.582722  -5.142582  0.382418
C                    0    -1.260746  -5.418349  1.727654
C                    0    -1.621744  -4.773518  -0.661178
C                    0    0.278068  -6.328600  -0.022963
C                    0    3.385104  -1.667070  -0.075729
C                    0    4.722682  -1.324953  -0.212729
C                    0    5.150344  -0.470678  -1.239264
C                    0    4.187456  0.000762  -2.138131
C                    0    2.845362  -0.338845  -1.997112
H                    0    -1.093427  -1.084717  -4.854818
H                    0    0.102218  -2.323954  -3.115755
H                    0    -1.878613  -4.569705  2.041991
H                    0    -0.523955  -5.628456  2.511404
H                    0    -1.910806  -6.295806  1.630824
H                    0    -2.327215  -5.606778  -0.772985
H                    0    -1.173410  -4.572284  -1.637905
H                    0    -2.196334  -3.895297  -0.359327
H                    0    -0.318393  -7.245367  0.058477
H                    0    1.145950  -6.417759  0.638309
H                    0    0.633063  -6.250289  -1.053906
H                    0    3.081385  -2.349326  0.714620
H                    0    2.123932  0.053170  -2.707132
H                    0    5.445489  -1.705266  0.504198
H                    0    4.492656  0.628145  -2.971621
H                    0    2.316953  -4.374806  -1.104156
H                    0    0.968680  -4.444181  -2.273761
H                    0    2.142488  -3.114625  -2.327449
C                    0    -3.430780  1.536204  -0.323986
C                    0    -2.600792  2.424714  1.868532
H                    0    -2.017692  3.112023  -0.086826
C                    0    -4.641331  2.465109  -0.237231
H                    0    -3.673478  0.571460  0.130939
H                    0    -3.195762  1.344349  -1.374573
C                    0    -3.807531  3.357121  1.959682
H                    0    -2.832689  1.466330  2.353637
H                    0    -1.752383  2.851263  2.418896
C                    0    -5.004814  2.779137  1.210847
H                    0    -5.493517  2.005826  -0.754200
H                    0    -4.416418  3.404252  -0.764603
H                    0    -4.061338  3.533785  3.012826
H                    0    -3.544133  4.334406  1.527695
H                    0    -5.854663  3.472584  1.252808
H                    0    -5.325302  1.852207  1.709072
C                    0    6.570471  -0.082347  -1.365761
C                    0    6.926310  1.205788  -1.788556
C                    0    7.595313  -0.988126  -1.059836
C                    0    8.262190  1.575770  -1.903631
H                    0    6.146256  1.931081  -2.005359
C                    0    8.931295  -0.618003  -1.173334
H                    0    7.341481  -1.999288  -0.752621
C                    0    9.271044  0.665303  -1.596270
H                    0    8.515817  2.582638  -2.225038
H                    0    9.710412  -1.338364  -0.938117
H                    0    10.314859  0.954200  -1.684553
O                    0    -1.867280  1.516965  -4.573490
C                    0    -2.210126  0.951501  -5.822007
H                    0    -2.716906  1.741289  -6.379012
H                    0    -1.319846  0.630355  -6.377376
H                    0    -2.891480  0.099982  -5.700374
O                    0    -1.291648  2.610998  -2.230818
C                    0    -0.535447  3.555167  -2.990589
H                    0    0.528696  3.468022  -2.733329
H                    0    -0.648591  3.340763  -4.059403
C                    0    -1.049867  4.926720  -2.666651
C                    0    -2.420515  5.143377  -2.506653
C                    0    -0.168794  6.000055  -2.529254
C                    0    -2.899808  6.414413  -2.204484
H                    0    -3.104683  4.306082  -2.607472
C                    0    -0.648761  7.274760  -2.237282
H                    0    0.900900  5.834745  -2.640664
C                    0    -2.015620  7.483690  -2.069806
H                    0    -3.967412  6.570614  -2.072892
H                    0    0.047744  8.101916  -2.128387
H                    0    -2.390677  8.475303  -1.831097
C                    0    1.984626  2.035874  0.123407
C                    0    0.311259  3.883892  0.527293
H                    0    0.772030  2.294055  1.877142
C                    0    3.124246  2.992955  0.460541
H                    0    1.839939  2.028492  -0.965285
H                    0    2.264880  1.014136  0.396999
C                    0    1.463937  4.815264  0.895016
H                    0    0.062432  4.021651  -0.528847
H                    0    -0.578155  4.174325  1.095213
C                    0    2.744570  4.437574  0.159385
H                    0    4.020311  2.697086  -0.099496
H                    0    3.381092  2.905044  1.525293
H                    0    1.177530  5.850039  0.668140
H                    0    1.642402  4.765724  1.979606
H                    0    3.562295  5.115695  0.434170
H                    0    2.587078  4.554428  -0.924045
C                    0    -2.135107  -1.411740  0.814898
H                    0    -1.706088  -1.660792  -0.160762
C                    0    -3.430746  -1.735816  0.982311
H                    0    -3.928594  -1.554667  1.936464
C                    0    -4.282309  -2.321337  -0.061867
C                    0    -5.432959  -3.049132  0.284617
C                    0    -6.237440  -3.639760  -0.675880
C                    0    -5.919895  -3.515536  -2.032872
C                    0    -4.792882  -2.778785  -2.405666
C                    0    -3.998071  -2.187338  -1.427803
H                    0    -5.689355  -3.162229  1.336181
H                    0    -7.121109  -4.207508  -0.398048
H                    0    -4.533272  -2.644626  -3.450795
H                    0    -3.138931  -1.598559  -1.738841
O                    0    -6.763306  -4.128513  -2.902352
C                    0    -6.466318  -4.025587  -4.275265
H                    0    -6.486343  -2.982345  -4.618369
H                    0    -5.486943  -4.462623  -4.512469
H                    0    -7.243827  -4.587151  -4.797518
O                    0    0.208123  0.355557  3.703938
C                    0    -1.495762  -1.626855  3.633381
H                    0    -1.149237  -2.659412  3.545650
H                    0    -2.582039  -1.560319  3.724679
C                    0    -0.738321  -0.794611  4.575900
H                    0    -1.338051  -0.070841  5.129845
C                    0    1.582819  0.128848  4.057406
C                    0    2.251624  -0.846048  3.083261
C                    0    3.718217  -1.105463  3.423953
C                    0    4.509784  0.197569  3.465699
C                    0    3.859168  1.204498  4.412912
C                    0    2.382918  1.438635  4.060669
H                    0    3.789574  -1.614517  4.394856
H                    0    1.691060  -1.786434  3.038737
H                    0    2.185927  -0.399950  2.082160
H                    0    5.548831  0.009233  3.764326
H                    0    4.544457  0.623284  2.451990
H                    0    3.941615  0.842339  5.447009
H                    0    4.395549  2.161197  4.377458
H                    0    1.923028  2.147040  4.761257
H                    0    2.329729  1.888953  3.064063
H                    0    4.151698  -1.793858  2.690023
C                    0    1.463040  -0.431460  5.475799
H                    0    1.180729  0.390734  6.146681
H                    0    2.391427  -0.866603  5.853977
C                    0    0.339409  -1.443545  5.397149
H                    0    -0.053695  -1.711582  6.384474
H                    0    0.673425  -2.368023  4.912808

C H O N P S 0
def2tzvp
****
Pd 0
SDD
****

Pd 0
SDD

eps=3.06095
epsinf=1.36375
HBondAcidity=0.00
HBondBasicity=0.205
SurfaceTensionAtInterface=24.855
CarbonAromaticity=0.000
ElectronegativeHalogenicity=0.000



