%nprocshared=8
%mem=8GB
%chk=IRC-3-function.chk
# genecp scrf=(smd,solvent=generic,read) nosymm em=gd3bj pbe1pbe 

IRC-3-function

0 1
Pd                    0    -0.883293  -0.450086  2.064269
P                    0    -0.662129  1.153457  0.390654
O                    0    1.757105  -4.239654  1.347273
S                    0    0.480367  -3.654792  0.785876
N                    0    0.752182  -2.989968  -0.758292
C                    0    0.958360  -1.527155  -0.713219
H                    0    0.714721  -1.211976  0.314194
C                    0    0.035071  -0.769164  -1.647940
C                    0    -0.434244  0.541049  -1.355424
C                    0    2.420487  -1.159565  -0.951345
C                    0    1.585985  -3.779849  -1.660292
C                    0    0.665160  2.399299  0.809026
C                    0    -2.240992  2.144536  0.412802
C                    0    -0.880397  -0.604851  -3.900816
C                    0    -1.235005  0.718304  -3.672092
C                    0    -0.957602  1.298871  -2.416106
C                    0    -0.218536  -1.312935  -2.902910
C                    0    -0.583556  -5.143149  0.382774
C                    0    -1.263161  -5.421833  1.726344
C                    0    -1.621499  -4.774520  -0.661878
C                    0    0.278479  -6.328535  -0.022255
C                    0    3.386775  -1.668781  -0.076715
C                    0    4.723716  -1.325425  -0.213575
C                    0    5.150394  -0.470830  -1.240146
C                    0    4.187318  0.000261  -2.139003
C                    0    2.845375  -0.340590  -1.998309
H                    0    -1.086827  -1.081453  -4.852805
H                    0    0.111499  -2.323090  -3.117147
H                    0    -1.894632  -4.580948  2.034085
H                    0    -0.527778  -5.621299  2.514206
H                    0    -1.902962  -6.306777  1.630208
H                    0    -2.326893  -5.607782  -0.773838
H                    0    -1.172314  -4.574082  -1.638297
H                    0    -2.196642  -3.896114  -0.361801
H                    0    -0.318257  -7.245248  0.056828
H                    0    1.144957  -6.418755  0.640602
H                    0    0.635420  -6.248942  -1.052301
H                    0    3.084232  -2.347907  0.716450
H                    0    2.123507  0.051893  -2.707706
H                    0    5.446002  -1.703345  0.504961
H                    0    4.492040  0.628710  -2.971840
H                    0    2.316842  -4.378427  -1.102784
H                    0    0.968706  -4.445310  -2.273011
H                    0    2.143820  -3.116493  -2.323880
C                    0    -3.435870  1.532995  -0.320703
C                    0    -2.606461  2.418362  1.877961
H                    0    -2.007822  3.094513  -0.075470
C                    0    -4.641336  2.468230  -0.236317
H                    0    -3.687540  0.568787  0.129616
H                    0    -3.196610  1.342878  -1.370471
C                    0    -3.808907  3.356403  1.962600
H                    0    -2.845753  1.462793  2.365996
H                    0    -1.755489  2.836827  2.429059
C                    0    -5.006433  2.782075  1.211310
H                    0    -5.493873  2.013093  -0.756230
H                    0    -4.410683  3.406749  -0.762030
H                    0    -4.064355  3.536441  3.014591
H                    0    -3.539525  4.331429  1.529613
H                    0    -5.854411  3.477689  1.251988
H                    0    -5.330842  1.855795  1.708491
C                    0    6.570445  -0.082104  -1.366302
C                    0    6.926298  1.206026  -1.788884
C                    0    7.595180  -0.987924  -1.060141
C                    0    8.262213  1.575946  -1.903688
H                    0    6.146290  1.931561  -2.004976
C                    0    8.931181  -0.617872  -1.173386
H                    0    7.341253  -1.998868  -0.752338
C                    0    9.270990  0.665412  -1.596301
H                    0    8.515915  2.582975  -2.224521
H                    0    9.710224  -1.338124  -0.937594
H                    0    10.314822  0.954409  -1.684113
O                    0    -1.863955  1.516509  -4.565475
C                    0    -2.206820  0.952694  -5.815636
H                    0    -2.713775  1.743604  -6.370778
H                    0    -1.316481  0.633027  -6.371541
H                    0    -2.888037  0.100974  -5.695116
O                    0    -1.291490  2.607272  -2.220097
C                    0    -0.535974  3.551660  -2.984358
H                    0    0.527910  3.464801  -2.727196
H                    0    -0.651109  3.333663  -4.051936
C                    0    -1.050439  4.924099  -2.663492
C                    0    -2.421165  5.142175  -2.505871
C                    0    -0.168908  5.997347  -2.527157
C                    0    -2.900000  6.413799  -2.205322
H                    0    -3.106182  4.305531  -2.606833
C                    0    -0.648531  7.272778  -2.237427
H                    0    0.900806  5.831425  -2.636939
C                    0    -2.015326  7.482690  -2.070883
H                    0    -3.967627  6.570769  -2.074866
H                    0    0.048431  8.099552  -2.128852
H                    0    -2.389950  8.474685  -1.833159
C                    0    1.980234  2.024519  0.123933
C                    0    0.304548  3.863625  0.543950
H                    0    0.771180  2.238876  1.892460
C                    0    3.118876  2.986920  0.454888
H                    0    1.829261  2.019404  -0.964320
H                    0    2.271108  1.005817  0.395632
C                    0    1.457410  4.801537  0.900992
H                    0    0.049127  4.001683  -0.511046
H                    0    -0.579566  4.155978  1.118905
C                    0    2.735343  4.430886  0.157552
H                    0    4.011782  2.692617  -0.111128
H                    0    3.381737  2.898090  1.517228
H                    0    1.161801  5.833682  0.673424
H                    0    1.643101  4.754462  1.984003
H                    0    3.552128  5.110623  0.431336
H                    0    2.573128  4.550595  -0.925035
C                    0    -2.125939  -1.398921  0.824308
H                    0    -1.692116  -1.664919  -0.144272
C                    0    -3.425449  -1.718669  0.977887
H                    0    -3.944908  -1.511997  1.916167
C                    0    -4.275115  -2.318200  -0.063370
C                    0    -5.426056  -3.045163  0.285700
C                    0    -6.232047  -3.637130  -0.673125
C                    0    -5.916580  -3.514361  -2.031127
C                    0    -4.789203  -2.778601  -2.405710
C                    0    -3.992210  -2.187257  -1.429431
H                    0    -5.683129  -3.155802  1.337377
H                    0    -7.115728  -4.203665  -0.393124
H                    0    -4.530978  -2.645332  -3.451229
H                    0    -3.132787  -1.599484  -1.741805
O                    0    -6.760760  -4.126833  -2.898774
C                    0    -6.466020  -4.025536  -4.273109
H                    0    -6.486519  -2.982653  -4.616806
H                    0    -5.487354  -4.463423  -4.510971
H                    0    -7.244792  -4.587434  -4.792891
O                    0    0.338809  0.620269  3.449934
C                    0    -1.634434  -1.829429  3.711593
H                    0    -1.252553  -2.811134  3.438933
H                    0    -2.684844  -1.637854  3.517554
C                    0    -0.955158  -1.051805  4.608706
H                    0    -1.429520  -0.145651  4.978860
C                    0    1.568889  0.209493  3.962277
C                    0    2.268970  -0.809012  3.046278
C                    0    3.715864  -1.106372  3.432758
C                    0    4.536966  0.178640  3.479965
C                    0    3.910778  1.188062  4.439146
C                    0    2.456430  1.462618  4.067021
H                    0    3.753520  -1.603010  4.412902
H                    0    1.682712  -1.735360  2.989963
H                    0    2.257651  -0.377395  2.037118
H                    0    5.574255  -0.034870  3.769438
H                    0    4.573616  0.611997  2.469082
H                    0    3.974321  0.801221  5.466486
H                    0    4.479237  2.127795  4.428209
H                    0    1.990706  2.162612  4.773644
H                    0    2.432133  1.946190  3.084573
H                    0    4.153970  -1.813995  2.718387
C                    0    1.344548  -0.376598  5.367258
H                    0    0.986523  0.434249  6.016342
H                    0    2.264085  -0.768576  5.817024
C                    0    0.291974  -1.473703  5.307323
H                    0    -0.011191  -1.747454  6.329869
H                    0    0.685620  -2.386576  4.844992

C H O N P S 0
def2tzvp
****
Pd 0
SDD
****

Pd 0
SDD

eps=3.06095
epsinf=1.36375
HBondAcidity=0.00
HBondBasicity=0.205
SurfaceTensionAtInterface=24.855
CarbonAromaticity=0.000
ElectronegativeHalogenicity=0.000



