%nprocshared=8
%mem=8GB
%chk=IRC-15-function.chk
# genecp scrf=(smd,solvent=generic,read) nosymm em=gd3bj pbe1pbe 

IRC-15-function

0 1
Pd                    0    -0.905162  -0.465624  2.034241
P                    0    -0.655265  1.162303  0.376647
O                    0    1.759124  -4.238829  1.344232
S                    0    0.480390  -3.653739  0.785009
N                    0    0.751469  -2.987777  -0.760325
C                    0    0.956281  -1.524357  -0.715460
H                    0    0.705269  -1.208557  0.310715
C                    0    0.036719  -0.763706  -1.652984
C                    0    -0.425124  0.551999  -1.366948
C                    0    2.419103  -1.157174  -0.950125
C                    0    1.585497  -3.777460  -1.661929
C                    0    0.664809  2.416114  0.795896
C                    0    -2.236154  2.155539  0.402739
C                    0    -0.883152  -0.604552  -3.904662
C                    0    -1.236537  0.719456  -3.679209
C                    0    -0.955078  1.302615  -2.426416
C                    0    -0.221358  -1.311270  -2.905149
C                    0    -0.582934  -5.142504  0.382485
C                    0    -1.261075  -5.418754  1.727510
C                    0    -1.621755  -4.773577  -0.661301
C                    0    0.278026  -6.328466  -0.022869
C                    0    3.385354  -1.667234  -0.075880
C                    0    4.722815  -1.324980  -0.212871
C                    0    5.150338  -0.470700  -1.239426
C                    0    4.187484  0.000756  -2.138316
C                    0    2.845410  -0.339047  -1.997426
H                    0    -1.092466  -1.084134  -4.854552
H                    0    0.103785  -2.323747  -3.116204
H                    0    -1.881221  -4.571442  2.041019
H                    0    -0.524435  -5.627357  2.511803
H                    0    -1.909669  -6.297283  1.630856
H                    0    -2.327208  -5.606836  -0.773109
H                    0    -1.173250  -4.572540  -1.637966
H                    0    -2.196463  -3.895312  -0.359878
H                    0    -0.318534  -7.245179  0.058224
H                    0    1.145700  -6.417861  0.638607
H                    0    0.633267  -6.249943  -1.053680
H                    0    3.081877  -2.348354  0.715432
H                    0    2.123967  0.053115  -2.707373
H                    0    5.445382  -1.704644  0.504579
H                    0    4.492646  0.628374  -2.971636
H                    0    2.316902  -4.375213  -1.104033
H                    0    0.968617  -4.444263  -2.273724
H                    0    2.142589  -3.114730  -2.326874
C                    0    -3.431643  1.535868  -0.323729
C                    0    -2.601669  2.423725  1.869978
H                    0    -2.014994  3.108547  -0.085119
C                    0    -4.641384  2.465703  -0.237147
H                    0    -3.676012  0.571218  0.130280
H                    0    -3.195928  1.344444  -1.374201
C                    0    -3.807657  3.357066  1.960003
H                    0    -2.835367  1.465807  2.355378
H                    0    -1.752799  2.847957  2.420901
C                    0    -5.005002  2.779558  1.210912
H                    0    -5.493561  2.006962  -0.754575
H                    0    -4.415722  3.404778  -0.764230
H                    0    -4.061532  3.534280  3.012985
H                    0    -3.543349  4.333976  1.527849
H                    0    -5.854645  3.473206  1.252751
H                    0    -5.326008  1.852676  1.708986
C                    0    6.570461  -0.082319  -1.365848
C                    0    6.926305  1.205813  -1.788597
C                    0    7.595274  -0.988118  -1.059905
C                    0    8.262189  1.575778  -1.903639
H                    0    6.146263  1.931183  -2.005164
C                    0    8.931260  -0.618017  -1.173380
H                    0    7.341419  -1.999208  -0.752488
C                    0    9.271025  0.665284  -1.596308
H                    0    8.515830  2.582695  -2.224880
H                    0    9.710360  -1.338350  -0.938022
H                    0    10.314845  0.954206  -1.684476
O                    0    -1.866703  1.516910  -4.572276
C                    0    -2.209679  0.951723  -5.821132
H                    0    -2.716457  1.741764  -6.377747
H                    0    -1.319432  0.630798  -6.376616
H                    0    -2.891072  0.100235  -5.699626
O                    0    -1.291560  2.610425  -2.229205
C                    0    -0.535473  3.554808  -2.989836
H                    0    0.528596  3.467621  -2.732623
H                    0    -0.649111  3.339768  -4.058402
C                    0    -1.049936  4.926439  -2.666218
C                    0    -2.420595  5.143284  -2.506533
C                    0    -0.168784  5.999752  -2.528950
C                    0    -2.899824  6.414377  -2.204495
H                    0    -3.104932  4.306124  -2.607461
C                    0    -0.648723  7.274544  -2.237238
H                    0    0.900910  5.834382  -2.640135
C                    0    -2.015564  7.483593  -2.069832
H                    0    -3.967425  6.570685  -2.073022
H                    0    0.047846  8.101634  -2.128343
H                    0    -2.390553  8.475239  -1.831178
C                    0    1.984105  2.033607  0.123883
C                    0    0.310083  3.879588  0.530632
H                    0    0.772113  2.281927  1.881135
C                    0    3.123354  2.992078  0.459904
H                    0    1.838006  2.026946  -0.964706
H                    0    2.267072  1.012686  0.397160
C                    0    1.462804  4.812682  0.895955
H                    0    0.060464  4.016634  -0.525513
H                    0    -0.578355  4.171009  1.099469
C                    0    2.743157  4.436527  0.159153
H                    0    4.018841  2.696254  -0.101095
H                    0    3.381039  2.904048  1.524192
H                    0    1.174122  5.846707  0.668412
H                    0    1.642465  4.764080  1.980247
H                    0    3.560558  5.114956  0.434167
H                    0    2.585212  4.554014  -0.924189
C                    0    -2.133643  -1.406406  0.813556
H                    0    -1.704544  -1.657886  -0.161150
C                    0    -3.429050  -1.732619  0.981124
H                    0    -3.930789  -1.546557  1.932451
C                    0    -4.280880  -2.321451  -0.062021
C                    0    -5.431746  -3.048866  0.284939
C                    0    -6.236691  -3.639398  -0.675384
C                    0    -5.919560  -3.515385  -2.032599
C                    0    -4.792514  -2.778665  -2.405644
C                    0    -3.997271  -2.187499  -1.428022
H                    0    -5.688372  -3.161720  1.336470
H                    0    -7.120446  -4.206777  -0.397166
H                    0    -4.533247  -2.644378  -3.450815
H                    0    -3.138259  -1.598744  -1.739430
O                    0    -6.762919  -4.128166  -2.901765
C                    0    -6.466331  -4.025476  -4.275043
H                    0    -6.486546  -2.982289  -4.618151
H                    0    -5.487080  -4.462636  -4.512299
H                    0    -7.244057  -4.587136  -4.796793
O                    0    0.247680  0.427355  3.646878
C                    0    -1.525382  -1.669121  3.656587
H                    0    -1.171329  -2.690601  3.509190
H                    0    -2.610844  -1.566815  3.659234
C                    0    -0.805125  -0.870847  4.597579
H                    0    -1.360779  -0.079772  5.098545
C                    0    1.579595  0.146800  4.036100
C                    0    2.256727  -0.840083  3.077460
C                    0    3.719458  -1.105968  3.425697
C                    0    4.515539  0.194648  3.467240
C                    0    3.871804  1.202813  4.417519
C                    0    2.401519  1.443733  4.062359
H                    0    3.785958  -1.611881  4.398868
H                    0    1.690103  -1.777471  3.033482
H                    0    2.200589  -0.399129  2.073492
H                    0    5.555231  0.002179  3.761528
H                    0    4.547991  0.621644  2.453813
H                    0    3.951477  0.835454  5.450340
H                    0    4.416129  2.155528  4.386292
H                    0    1.938042  2.149546  4.763573
H                    0    2.351589  1.900510  3.068350
H                    0    4.155152  -1.797826  2.695802
C                    0    1.440938  -0.420395  5.454663
H                    0    1.144601  0.398991  6.122958
H                    0    2.366271  -0.850752  5.848325
C                    0    0.330673  -1.449462  5.380069
H                    0    -0.040007  -1.716435  6.378593
H                    0    0.675885  -2.374179  4.904160

C H O N P S 0
def2tzvp
****
Pd 0
SDD
****

Pd 0
SDD

eps=3.06095
epsinf=1.36375
HBondAcidity=0.00
HBondBasicity=0.205
SurfaceTensionAtInterface=24.855
CarbonAromaticity=0.000
ElectronegativeHalogenicity=0.000



