%nprocshared=8
%mem=8GB
%chk=rpipmin-cf-1-opt.chk
# opt freq 6-31G(d) scrf=(smd,solvent=generic,read) nosymm em=gd3bj pbe1pbe 

rpipmin-cf-1-opt

0 1
Ru                    0    0.155442  -0.468544  0.040589
P                    0    -1.071162  -1.761728  1.403378
N                    0    0.306989  1.129679  1.349576
N                    0    -1.545847  0.542367  -0.581295
O                    0    -0.725950  -1.233920  -2.042795
C                    0    -2.866964  -1.574047  1.473025
C                    0    -0.646316  -1.670470  3.180053
C                    0    -1.004477  -3.556778  1.071382
C                    0    -0.934586  1.924660  1.248531
H                    0    0.563157  1.033461  2.335616
H                    0    1.043055  1.663946  0.869251
C                    0    -1.376574  1.924158  -0.242784
S                    0    -1.370032  0.093668  -2.098053
C                    0    -3.911012  -2.341489  1.026795
O                    0    -3.333162  -0.395053  1.942331
C                    0    -1.563156  -1.824595  4.214164
C                    0    0.694907  -1.450178  3.484551
C                    0    -0.718252  -3.950083  -0.233172
C                    0    -1.232633  -4.520450  2.047871
C                    0    -0.772234  3.327343  1.770226
H                    0    -1.714314  1.397473  1.812893
C                    0    -2.642958  2.724479  -0.438735
H                    0    -0.578414  2.380504  -0.855676
O                    0    -0.795054  1.071127  -2.982874
C                    0    -3.054551  -0.216828  -2.620010
C                    0    -5.081346  -1.582683  1.252416
H                    0    -3.845003  -3.326878  0.611405
C                    0    -4.666578  -0.411316  1.808628
C                    0    -1.141420  -1.754603  5.530982
H                    0    -2.606353  -2.000462  3.993205
C                    0    1.114207  -1.387554  4.800537
H                    0    1.397776  -1.339992  2.664300
C                    0    -0.672514  -5.294527  -0.558384
H                    0    -0.545806  -3.189322  -0.987539
C                    0    -1.180421  -5.863109  1.717611
H                    0    -1.445193  -4.219411  3.063425
C                    0    -1.716947  3.859556  2.638507
C                    0    0.282881  4.131924  1.353916
C                    0    -2.587753  4.089276  -0.690969
C                    0    -3.880321  2.099212  -0.383853
C                    0    -3.765369  0.765877  -3.282762
C                    0    -3.679205  -1.374427  -2.197865
H                    0    -6.089448  -1.869291  1.032728
H                    0    -5.206814  0.451858  2.146343
C                    0    0.194029  -1.537417  5.826621
H                    0    -1.858146  -1.874057  6.330564
H                    0    2.157092  -1.223422  5.029047
C                    0    -0.902491  -6.251691  0.416864
H                    0    -0.454970  -5.597249  -1.572177
H                    0    -1.356489  -6.610246  2.477857
C                    0    -1.608060  5.164326  3.085127
H                    0    -2.546325  3.245184  2.957011
C                    0    0.396082  5.434887  1.803872
H                    0    1.014194  3.752135  0.653695
C                    0    -3.751223  4.815030  -0.871820
H                    0    -1.629962  4.585354  -0.751950
C                    0    -5.043897  2.822542  -0.572091
H                    0    -3.917525  1.035054  -0.213116
C                    0    -5.113669  0.582766  -3.529657
H                    0    -3.248539  1.659941  -3.594878
C                    0    -5.028134  -1.552959  -2.445868
H                    0    -3.094496  -2.118340  -1.678545
H                    0    0.517502  -1.486331  6.855655
H                    0    -0.862868  -7.301251  0.164795
C                    0    -0.549270  5.954340  2.671699
H                    0    -2.352097  5.565825  3.756707
H                    0    1.220117  6.048592  1.470693
C                    0    -4.982620  4.184240  -0.812349
H                    0    -3.696407  5.876146  -1.066955
H                    0    -5.998960  2.318306  -0.535348
C                    0    -5.761214  -0.574698  -3.109042
H                    0    -5.673662  1.348606  -4.046646
H                    0    -5.519653  -2.457446  -2.117018
H                    0    -0.462806  6.972678  3.019524
H                    0    -5.889716  4.752014  -0.959925
C                    0    -7.220672  -0.770424  -3.388233
H                    0    -7.663682  -1.465039  -2.678773
H                    0    -7.754391  0.175935  -3.339947
H                    0    -7.354997  -1.179190  -4.390066
N                    0    1.848734  -1.581270  0.157295
N                    0    3.070419  -1.261114  0.020101
H                    0    1.717398  -2.555302  -0.147262
C                    0    3.511081  -0.034482  0.296548
H                    0    2.927434  0.608651  0.967743
C                    0    4.944477  0.163316  0.290375
C                    0    5.519850  1.276442  0.911954
C                    0    5.786469  -0.728035  -0.385016
C                    0    6.881178  1.500376  0.856450
H                    0    4.892033  1.969000  1.455427
C                    0    7.146930  -0.512093  -0.443493
H                    0    5.348975  -1.596309  -0.849746
C                    0    7.688823  0.607227  0.171016
H                    0    7.317106  2.361153  1.339996
H                    0    7.790182  -1.203308  -0.965602
Cl                    0    9.396960  0.888908  0.090185
C                    0    2.658217  0.927860  -1.391393
O                    0    1.438044  0.899838  -1.056057
C                    0    3.323937  2.295772  -1.305019
C                    0    3.200155  0.009659  -2.424857
H                    0    3.191554  2.787620  -2.268569
H                    0    2.835920  2.901599  -0.543077
H                    0    4.384229  2.239099  -1.081903
C                    0    4.492028  0.138819  -2.934726
C                    0    2.389074  -1.017811  -2.907505
C                    0    4.957035  -0.745475  -3.890440
H                    0    5.143622  0.928215  -2.596321
C                    0    2.860602  -1.899899  -3.859513
H                    0    1.371221  -1.105438  -2.550433
C                    0    4.149034  -1.771030  -4.351340
H                    0    5.960234  -0.632912  -4.275904
H                    0    2.216801  -2.687754  -4.222976
H                    0    4.519562  -2.460856  -5.095929

eps=3.06095
epsinf=1.36375
HBondAcidity=0.00
HBondBasicity=0.205
SurfaceTensionAtInterface=24.855
CarbonAromaticity=0.000
ElectronegativeHalogenicity=0.000


