%nprocshared=8
%mem=8GB
%chk=rpipmin-cf-8-opt.chk
# opt freq 6-31G(d) scrf=(smd,solvent=generic,read) nosymm em=gd3bj pbe1pbe 

rpipmin-cf-8-opt

0 1
Ru                    0    0.158299  -0.424627  0.108572
P                    0    -1.110155  -1.674346  1.465844
N                    0    0.341892  1.243985  1.322144
N                    0    -1.566318  0.528327  -0.539992
O                    0    -0.811217  -1.404796  -1.841415
C                    0    -2.882913  -1.868506  1.176247
C                    0    -1.035336  -1.236743  3.234555
C                    0    -0.676146  -3.446407  1.465787
C                    0    -0.889085  2.041513  1.156610
H                    0    0.583129  1.199064  2.315820
H                    0    1.089839  1.747107  0.827035
C                    0    -1.332348  1.927579  -0.325674
S                    0    -1.431378  -0.073485  -2.004799
C                    0    -3.668267  -2.970130  0.945610
O                    0    -3.627180  -0.747835  1.067020
C                    0    -2.134624  -1.118690  4.075104
C                    0    0.241571  -0.979240  3.732546
C                    0    -0.384671  -4.004340  0.221998
C                    0    -0.618648  -4.235891  2.607179
C                    0    -0.706321  3.483092  1.551995
H                    0    -1.672145  1.572720  1.767090
C                    0    -2.560971  2.762753  -0.587249
H                    0    -0.518645  2.286216  -0.979414
O                    0    -0.852231  0.802523  -2.988471
C                    0    -3.127698  -0.406517  -2.481714
C                    0    -4.967771  -2.479906  0.694302
H                    0    -3.353174  -3.993868  0.966481
C                    0    -4.878102  -1.123469  0.776621
C                    0    -1.956333  -0.748503  5.398123
H                    0    -3.127336  -1.320798  3.699731
C                    0    0.416439  -0.619836  5.055298
H                    0    1.086092  -1.081890  3.056687
C                    0    -0.049777  -5.342401  0.123497
H                    0    -0.433458  -3.372108  -0.658892
C                    0    -0.278491  -5.574169  2.502434
H                    0    -0.838445  -3.804277  3.573034
C                    0    -1.566321  4.076131  2.466846
C                    0    0.292961  4.256185  0.970968
C                    0    -3.782879  2.394616  -0.039613
C                    0    -2.493302  3.889179  -1.394909
C                    0    -3.926065  0.645356  -2.890780
C                    0    -3.659820  -1.671405  -2.326971
H                    0    -5.845606  -3.055750  0.483906
H                    0    -5.613132  -0.352288  0.651302
C                    0    -0.685789  -0.500566  5.889490
H                    0    -2.813178  -0.657319  6.049767
H                    0    1.408046  -0.431738  5.440461
C                    0    0.004302  -6.128004  1.264978
H                    0    0.173414  -5.775316  -0.840681
H                    0    -0.234170  -6.187426  3.390692
C                    0    -1.428903  5.412581  2.797728
H                    0    -2.351908  3.485667  2.915458
C                    0    0.433319  5.591019  1.303291
H                    0    0.956291  3.821204  0.236370
C                    0    -4.919569  3.136759  -0.300667
H                    0    -3.827113  1.511553  0.576154
C                    0    -3.630456  4.635041  -1.652715
H                    0    -1.548084  4.176705  -1.832134
C                    0    -5.269116  0.428873  -3.138430
H                    0    -3.483737  1.621434  -3.014321
C                    0    -5.001851  -1.886038  -2.586035
H                    0    -3.012227  -2.472989  -2.006482
H                    0    -0.552863  -0.215564  6.922542
H                    0    0.269555  -7.172283  1.189686
C                    0    -0.427361  6.172465  2.218803
H                    0    -2.106346  5.862023  3.508332
H                    0    1.212239  6.180765  0.842902
C                    0    -4.846026  4.260067  -1.107399
H                    0    -5.867765  2.840916  0.125550
H                    0    -3.568096  5.508778  -2.285016
C                    0    -5.823339  -0.837972  -2.985387
H                    0    -5.894816  1.251967  -3.452323
H                    0    -5.418321  -2.876544  -2.472422
H                    0    -0.319862  7.215478  2.475851
H                    0    -5.733893  4.840254  -1.312808
C                    0    -7.275198  -1.075896  -3.271109
H                    0    -7.670288  -1.867749  -2.639113
H                    0    -7.855940  -0.170660  -3.112086
H                    0    -7.403607  -1.379899  -4.310256
N                    0    1.853386  -1.518277  0.331346
N                    0    3.077471  -1.217963  0.174707
H                    0    1.723985  -2.517806  0.125625
C                    0    3.526538  0.027488  0.328696
H                    0    2.954227  0.735817  0.940248
C                    0    4.961358  0.212788  0.293265
C                    0    5.549866  1.376095  0.800191
C                    0    5.791482  -0.745556  -0.300223
C                    0    6.912220  1.582974  0.713113
H                    0    4.931389  2.122997  1.278402
C                    0    7.152889  -0.546958  -0.389582
H                    0    5.343607  -1.650547  -0.676656
C                    0    7.707873  0.621724  0.110818
H                    0    7.358196  2.482860  1.108200
H                    0    7.786928  -1.289983  -0.847950
Cl                    0    9.417299  0.880715  -0.009356
C                    0    2.659490  0.836034  -1.431163
O                    0    1.445300  0.866173  -1.073643
C                    0    3.351005  2.192198  -1.490282
C                    0    3.161911  -0.190784  -2.378306
H                    0    3.203076  2.593757  -2.492703
H                    0    2.893350  2.875742  -0.776827
H                    0    4.415432  2.135472  -1.288364
C                    0    4.447710  -0.145711  -2.917062
C                    0    2.317422  -1.238805  -2.746185
C                    0    4.874767  -1.131471  -3.787226
H                    0    5.123738  0.655866  -2.666624
C                    0    2.751291  -2.222294  -3.613012
H                    0    1.302700  -1.263957  -2.369200
C                    0    4.034180  -2.176099  -4.133064
H                    0    5.873756  -1.083627  -4.196379
H                    0    2.082035  -3.024621  -3.888024
H                    0    4.375323  -2.945207  -4.811051

eps=3.06095
epsinf=1.36375
HBondAcidity=0.00
HBondBasicity=0.205
SurfaceTensionAtInterface=24.855
CarbonAromaticity=0.000
ElectronegativeHalogenicity=0.000


