%nprocshared=8
%mem=8GB
%chk=rpipmin-cf-1869-opt.chk
# opt freq 6-31G(d) scrf=(smd,solvent=generic,read) nosymm em=gd3bj pbe1pbe 

rpipmin-cf-1869-opt

0 1
Ru                    0    0.161606  -0.416726  0.121278
P                    0    -1.132891  -1.615606  1.499249
N                    0    0.358785  1.280909  1.291695
N                    0    -1.555891  0.529493  -0.555437
O                    0    -0.800100  -1.437100  -1.811874
C                    0    -2.905291  -1.779919  1.190288
C                    0    -1.070537  -1.137300  3.257732
C                    0    -0.732596  -3.394793  1.545763
C                    0    -0.866948  2.080868  1.103062
H                    0    0.598674  1.261266  2.286477
H                    0    1.110516  1.765624  0.784013
C                    0    -1.308865  1.932032  -0.376179
S                    0    -1.430501  -0.114119  -2.003417
C                    0    -3.707083  -2.866181  0.944564
O                    0    -3.626356  -0.645282  1.069664
C                    0    -2.176244  -0.991577  4.085489
C                    0    0.203990  -0.879144  3.761233
C                    0    -0.710564  -4.159021  2.705468
C                    0    -0.429958  -3.986245  0.320367
C                    0    -0.674911  3.530749  1.462730
H                    0    -1.652541  1.632391  1.725254
C                    0    -2.528499  2.772174  -0.663053
H                    0    -0.491017  2.265094  -1.038064
O                    0    -0.867642  0.738581  -3.016602
C                    0    -3.126840  -0.481549  -2.458651
C                    0    -4.992635  -2.351272  0.671384
H                    0    -3.411873  -3.895709  0.969981
C                    0    -4.878841  -0.996928  0.757232
C                    0    -2.006542  -0.592695  5.401252
H                    0    -3.167171  -1.194541  3.705840
C                    0    0.370191  -0.490992  5.076970
H                    0    1.053424  -1.004241  3.095345
C                    0    -0.394480  -5.505491  2.636970
H                    0    -0.938820  -3.701345  3.657269
C                    0    -0.119295  -5.332300  0.257960
H                    0    -0.451238  -3.373328  -0.575095
C                    0    -1.519967  4.147795  2.375574
C                    0    0.320954  4.285687  0.852669
C                    0    -2.461127  3.832927  -1.555464
C                    0    -3.742226  2.473927  -0.057231
C                    0    -3.618776  -1.766064  -2.333321
C                    0    -3.959944  0.553994  -2.838199
H                    0    -5.877094  -2.910253  0.444084
H                    0    -5.596306  -0.211321  0.620328
C                    0    -0.738343  -0.343696  5.898194
H                    0    -2.868276  -0.479870  6.043007
H                    0    1.359863  -0.302178  5.466726
C                    0    -0.100577  -6.092588  1.417554
H                    0    -0.377611  -6.099097  3.539408
H                    0    0.112544  -5.791241  -0.692051
C                    0    -1.371726  5.490395  2.675559
H                    0    -2.302263  3.571288  2.847507
C                    0    0.471994  5.626687  1.153928
H                    0    0.972944  3.830972  0.119953
C                    0    -3.589504  4.582916  -1.839051
H                    0    -1.523218  4.064082  -2.039239
C                    0    -4.870064  3.220546  -0.343112
H                    0    -3.790254  1.640962  0.624671
C                    0    -4.954686  -2.016276  -2.590719
H                    0    -2.944206  -2.555055  -2.038685
C                    0    -5.297651  0.301801  -3.082889
H                    0    -3.549386  1.545753  -2.944679
H                    0    -0.612230  -0.036107  6.925610
H                    0    0.145824  -7.143125  1.370521
C                    0    -0.374096  6.232335  2.067379
H                    0    -2.037592  5.958616  3.384989
H                    0    1.247929  6.202221  0.671104
C                    0    -4.796474  4.278226  -1.234172
H                    0    -3.526952  5.404686  -2.537516
H                    0    -5.811606  2.979721  0.129971
C                    0    -5.811225  -0.984846  -2.959199
H                    0    -5.338831  -3.022349  -2.502616
H                    0    -5.949462  1.112578  -3.375053
H                    0    -0.258216  7.280114  2.300271
H                    0    -5.677632  4.861539  -1.458616
C                    0    -7.265704  -1.256716  -3.197641
H                    0    -7.707371  -0.488641  -3.827248
H                    0    -7.405501  -2.225852  -3.670926
H                    0    -7.801571  -1.267243  -2.247966
N                    0    1.846979  -1.518115  0.377168
N                    0    3.073782  -1.232137  0.215661
H                    0    1.709396  -2.521523  0.197085
C                    0    3.532302  0.013457  0.339115
H                    0    2.964093  0.741078  0.931523
C                    0    4.968678  0.186386  0.302918
C                    0    5.565379  1.356995  0.782701
C                    0    5.792397  -0.792918  -0.264694
C                    0    6.929576  1.550704  0.694038
H                    0    4.951892  2.120301  1.241034
C                    0    7.155590  -0.607560  -0.355373
H                    0    5.338127  -1.703315  -0.619809
C                    0    7.718824  0.568592  0.117526
H                    0    7.381895  2.456395  1.068087
H                    0    7.784663  -1.366722  -0.793697
Cl                    0    9.430551  0.810832  -0.004647
C                    0    2.677274  0.785476  -1.442892
O                    0    1.460950  0.830873  -1.093378
C                    0    3.376759  2.136120  -1.529845
C                    0    3.178500  -0.265877  -2.363351
H                    0    3.235792  2.515491  -2.541884
H                    0    2.919911  2.838454  -0.834305
H                    0    4.439932  2.078048  -1.321799
C                    0    4.466676  -0.239858  -2.897681
C                    0    2.330280  -1.318220  -2.709728
C                    0    4.892275  -1.248044  -3.742527
H                    0    5.145638  0.564213  -2.663725
C                    0    2.762726  -2.324079  -3.551184
H                    0    1.314106  -1.329392  -2.336082
C                    0    4.047912  -2.296470  -4.066928
H                    0    5.893106  -1.214764  -4.148602
H                    0    2.090658  -3.129467  -3.809909
H                    0    4.387925  -3.083097  -4.725088

eps=3.06095
epsinf=1.36375
HBondAcidity=0.00
HBondBasicity=0.205
SurfaceTensionAtInterface=24.855
CarbonAromaticity=0.000
ElectronegativeHalogenicity=0.000


