%nprocshared=8
%mem=8GB
%chk=rpipmin-cf-404-opt.chk
# opt freq 6-31G(d) scrf=(smd,solvent=generic,read) nosymm em=gd3bj pbe1pbe 

rpipmin-cf-404-opt

0 1
Ru                    0    0.203346  -0.465577  0.094883
P                    0    -1.075586  -1.529014  1.591964
N                    0    0.388566  1.301812  1.159188
N                    0    -1.475803  0.483395  -0.668651
O                    0    -0.678711  -1.494960  -1.871198
C                    0    -0.152375  -1.770076  3.133872
C                    0    -1.626383  -3.237570  1.273414
C                    0    -2.624723  -0.771841  2.186934
C                    0    -0.817467  2.119000  0.922489
H                    0    0.636857  1.330351  2.150330
H                    0    1.149938  1.730471  0.617524
C                    0    -1.264978  1.896884  -0.548543
S                    0    -1.356496  -0.203887  -2.099193
C                    0    -0.118480  -2.675767  4.159920
O                    0    0.852392  -0.872956  3.285176
C                    0    -2.536178  -3.889386  2.101736
C                    0    -1.097857  -3.901280  0.171926
C                    0    -2.638486  0.083438  3.285031
C                    0    -3.789911  -0.950671  1.447316
C                    0    -0.605710  3.583294  1.201416
H                    0    -1.621086  1.729340  1.559958
C                    0    -2.515972  2.688651  -0.839425
H                    0    -0.463891  2.231731  -1.230485
O                    0    -0.850506  0.630067  -3.155970
C                    0    -3.059442  -0.624677  -2.466251
C                    0    0.965085  -2.298833  4.985026
H                    0    -0.779110  -3.505542  4.304856
C                    0    1.516790  -1.199619  4.400456
C                    0    -2.903800  -5.194337  1.830028
H                    0    -2.959346  -3.366287  2.948111
C                    0    -1.471729  -5.206974  -0.097482
H                    0    -0.420678  -3.368145  -0.486768
C                    0    -3.806138  0.729606  3.650670
H                    0    -1.732186  0.233140  3.857205
C                    0    -4.956487  -0.306797  1.818067
H                    0    -3.771840  -1.592103  0.577645
C                    0    -1.520040  4.279670  1.981795
C                    0    0.461599  4.275066  0.640196
C                    0    -2.452442  3.909509  -1.496257
C                    0    -3.751608  2.192729  -0.447223
C                    0    -3.881685  0.322288  -3.047894
C                    0    -3.578446  -1.823537  -2.015971
H                    0    1.289204  -2.784144  5.882844
H                    0    2.354919  -0.589819  4.676930
C                    0    -2.371051  -5.854660  0.733318
H                    0    -3.610133  -5.699740  2.472844
H                    0    -1.065251  -5.718639  -0.957470
C                    0    -4.966964  0.534172  2.919948
H                    0    -3.811812  1.387616  4.507949
H                    0    -5.857448  -0.454486  1.240159
C                    0    -1.366852  5.636607  2.203176
H                    0    -2.361278  3.751539  2.407365
C                    0    0.618576  5.630700  0.864904
H                    0    1.167792  3.760652  0.003285
C                    0    -3.608916  4.623937  -1.754810
H                    0    -1.495070  4.299055  -1.810920
C                    0    -4.907430  2.904488  -0.708972
H                    0    -3.791771  1.235683  0.049413
C                    0    -5.233631  0.064548  -3.180319
H                    0    -3.448000  1.247998  -3.392603
C                    0    -4.932328  -2.078135  -2.151555
H                    0    -2.908855  -2.546195  -1.572861
H                    0    -2.663277  -6.873340  0.524417
H                    0    -5.877006  1.039812  3.206863
C                    0    -0.294922  6.314678  1.648642
H                    0    -2.086835  6.166387  2.808819
H                    0    1.451892  6.155968  0.421882
C                    0    -4.838675  4.123475  -1.362152
H                    0    -3.550530  5.572536  -2.268407
H                    0    -5.863606  2.505071  -0.403147
C                    0    -5.775535  -1.135070  -2.728549
H                    0    -5.878679  0.803320  -3.633603
H                    0    -5.339479  -3.016491  -1.801244
H                    0    -0.174153  7.373525  1.821130
H                    0    -5.740586  4.681142  -1.568688
C                    0    -7.240022  -1.411934  -2.886650
H                    0    -7.575655  -2.158945  -2.171458
H                    0    -7.822295  -0.503180  -2.752016
H                    0    -7.439389  -1.790471  -3.889451
N                    0    1.863454  -1.577320  0.451369
N                    0    3.096103  -1.305926  0.323113
H                    0    1.728887  -2.591414  0.339325
C                    0    3.550795  -0.053342  0.390295
H                    0    2.961962  0.701152  0.924109
C                    0    4.987789  0.117228  0.402222
C                    0    5.567380  1.312030  0.842023
C                    0    5.832052  -0.891366  -0.077198
C                    0    6.934479  1.500624  0.798960
H                    0    4.937543  2.099117  1.233137
C                    0    7.198250  -0.711320  -0.121787
H                    0    5.390945  -1.819862  -0.400619
C                    0    7.744421  0.488677  0.309307
H                    0    7.373243  2.425225  1.141610
H                    0    7.842977  -1.493210  -0.492130
Cl                    0    9.460581  0.723815  0.244642
C                    0    2.768242  0.626714  -1.461125
O                    0    1.536467  0.693499  -1.169835
C                    0    3.476080  1.969422  -1.594240
C                    0    3.304743  -0.472722  -2.302702
H                    0    3.382841  2.289962  -2.631832
H                    0    2.990563  2.712145  -0.963234
H                    0    4.528448  1.922854  -1.334480
C                    0    4.614936  -0.476471  -2.781384
C                    0    2.468795  -1.540904  -2.629902
C                    0    5.073396  -1.528607  -3.552236
H                    0    5.285861  0.338275  -2.561779
C                    0    2.933951  -2.590468  -3.397379
H                    0    1.437066  -1.529483  -2.301680
C                    0    4.240541  -2.591959  -3.857063
H                    0    6.091003  -1.517863  -3.915582
H                    0    2.271023  -3.407562  -3.642904
H                    0    4.606117  -3.412837  -4.457109

eps=3.06095
epsinf=1.36375
HBondAcidity=0.00
HBondBasicity=0.205
SurfaceTensionAtInterface=24.855
CarbonAromaticity=0.000
ElectronegativeHalogenicity=0.000


