%nprocshared=8
%mem=8GB
%chk=rpipmin-cf-2-opt.chk
# opt freq 6-31G(d) scrf=(smd,solvent=generic,read) nosymm em=gd3bj pbe1pbe 

rpipmin-cf-2-opt

0 1
Ru                    0    0.154381  -0.446298  0.102628
P                    0    -1.084476  -1.651866  1.534715
N                    0    0.363723  1.201311  1.340484
N                    0    -1.559711  0.539384  -0.524578
O                    0    -0.756485  -1.300056  -1.933191
C                    0    -2.872226  -1.378185  1.577524
C                    0    -0.633948  -1.526019  3.301691
C                    0    -1.091376  -3.459483  1.260277
C                    0    -0.875560  1.992697  1.229684
H                    0    0.648213  1.153821  2.322176
H                    0    1.088586  1.703733  0.810858
C                    0    -1.348768  1.929835  -0.249123
S                    0    -1.387861  0.030355  -2.024017
C                    0    -3.700354  -0.498042  2.226718
O                    0    -3.573577  -2.060463  0.647093
C                    0    -1.520616  -1.694147  4.360369
C                    0    0.711957  -1.292430  3.574613
C                    0    -0.800256  -3.906094  -0.025397
C                    0    -1.386592  -4.379608  2.260502
C                    0    -0.708407  3.421108  1.676557
H                    0    -1.645052  1.491956  1.832211
C                    0    -2.600045  2.752334  -0.444815
H                    0    -0.555243  2.339117  -0.899376
O                    0    -0.800479  0.976659  -2.934874
C                    0    -3.065381  -0.285494  -2.572490
C                    0    -4.984646  -0.681193  1.667185
H                    0    -3.430695  0.179551  3.012429
C                    0    -4.841229  -1.639374  0.709922
C                    0    -1.066651  -1.615450  5.666012
H                    0    -2.565370  -1.886475  4.164949
C                    0    1.163875  -1.219767  4.879414
H                    0    1.394741  -1.182490  2.737494
C                    0    -0.812897  -5.260634  -0.308261
H                    0    -0.581138  -3.178422  -0.799440
C                    0    -1.392400  -5.732686  1.972057
H                    0    -1.603668  -4.039507  3.262744
C                    0    -1.649346  4.001860  2.517440
C                    0    0.343006  4.201383  1.208596
C                    0    -2.524664  4.066354  -0.886740
C                    0    -3.845134  2.193846  -0.192399
C                    0    -3.824574  0.769159  -3.046607
C                    0    -3.620098  -1.541358  -2.428972
H                    0    -5.884765  -0.168314  1.939220
H                    0    -5.546744  -2.087666  0.038834
C                    0    0.272269  -1.377766  5.928743
H                    0    -1.761197  -1.745611  6.483337
H                    0    2.210348  -1.043426  5.080562
C                    0    -1.107465  -6.174834  0.690199
H                    0    -0.591115  -5.604959  -1.307893
H                    0    -1.620113  -6.446099  2.750907
C                    0    -1.539081  5.329835  2.888602
H                    0    -2.479118  3.408441  2.872701
C                    0    0.457601  5.527860  1.583120
H                    0    1.070913  3.782840  0.527399
C                    0    -3.677100  4.810360  -1.066512
H                    0    -1.560470  4.506629  -1.096239
C                    0    -4.997571  2.934894  -0.378371
H                    0    -3.896108  1.166940  0.133348
C                    0    -5.150994  0.563155  -3.374229
H                    0    -3.360802  1.736719  -3.159302
C                    0    -4.947074  -1.745286  -2.769203
H                    0    -3.004550  -2.344923  -2.055337
H                    0    0.620368  -1.319820  6.949298
H                    0    -1.113999  -7.232586  0.471165
C                    0    -0.482991  6.095414  2.425420
H                    0    -2.280407  5.768416  3.539581
H                    0    1.279110  6.121951  1.210658
C                    0    -4.916232  4.246755  -0.813185
H                    0    -3.608081  5.831809  -1.411315
H                    0    -5.960814  2.484863  -0.186097
C                    0    -5.728550  -0.696506  -3.237524
H                    0    -5.748250  1.385306  -3.741241
H                    0    -5.379330  -2.731472  -2.670735
H                    0    -0.395552  7.131898  2.714265
H                    0    -5.815149  4.827689  -0.959659
C                    0    -7.166069  -0.906496  -3.606541
H                    0    -7.501329  -1.901843  -3.326565
H                    0    -7.798210  -0.170197  -3.113169
H                    0    -7.297914  -0.788791  -4.681652
N                    0    1.838443  -1.570117  0.243987
N                    0    3.061924  -1.274410  0.073058
H                    0    1.689097  -2.555277  -0.012980
C                    0    3.525381  -0.043740  0.286410
H                    0    2.963971  0.638197  0.937750
C                    0    4.961103  0.131583  0.245347
C                    0    5.564286  1.262173  0.806080
C                    0    5.777106  -0.801487  -0.405176
C                    0    6.927392  1.462667  0.715462
H                    0    4.957120  1.987462  1.329994
C                    0    7.139166  -0.609183  -0.498249
H                    0    5.318289  -1.682685  -0.822565
C                    0    7.708800  0.527886  0.055614
H                    0    7.384864  2.337234  1.152092
H                    0    7.762282  -1.332554  -1.000841
Cl                    0    9.418905  0.779737  -0.069355
C                    0    2.654440  0.854785  -1.427282
O                    0    1.439914  0.853201  -1.071630
C                    0    3.335120  2.218006  -1.408373
C                    0    3.171506  -0.111462  -2.429146
H                    0    3.193620  2.669908  -2.389994
H                    0    2.864460  2.860928  -0.666107
H                    0    4.397947  2.159401  -1.198152
C                    0    4.456171  -0.016493  -2.964120
C                    0    2.343703  -1.150635  -2.854843
C                    0    4.897829  -0.944906  -3.888598
H                    0    5.120196  0.780223  -2.669932
C                    0    2.791893  -2.076693  -3.775832
H                    0    1.331215  -1.212824  -2.478131
C                    0    4.073381  -1.981186  -4.292817
H                    0    5.895698  -0.858457  -4.294103
H                    0    2.135435  -2.873058  -4.095450
H                    0    4.425719  -2.705451  -5.013137

eps=3.06095
epsinf=1.36375
HBondAcidity=0.00
HBondBasicity=0.205
SurfaceTensionAtInterface=24.855
CarbonAromaticity=0.000
ElectronegativeHalogenicity=0.000


