%nprocshared=8
%mem=8GB
%chk=rpipmin-cf-9-opt.chk
# opt freq 6-31G(d) scrf=(smd,solvent=generic,read) nosymm em=gd3bj pbe1pbe 

rpipmin-cf-9-opt

0 1
Ru                    0    0.155056  -0.467950  0.040437
P                    0    -1.074056  -1.759096  1.402707
N                    0    0.307203  1.130931  1.348550
N                    0    -1.545157  0.543375  -0.583708
O                    0    -0.724987  -1.235516  -2.042710
C                    0    -2.870068  -1.571869  1.468011
C                    0    -0.652660  -1.665153  3.180049
C                    0    -1.006285  -3.554611  1.073558
C                    0    -0.933422  1.926964  1.244749
H                    0    0.561388  1.034603  2.335095
H                    0    1.044712  1.664368  0.869622
C                    0    -1.372788  1.925348  -0.247344
S                    0    -1.370014  0.091551  -2.099700
C                    0    -3.912633  -2.341172  1.021536
O                    0    -3.337977  -0.391696  1.932551
C                    0    -1.571580  -1.816074  4.212779
C                    0    0.688300  -1.445912  3.486520
C                    0    -0.717297  -3.949950  -0.229754
C                    0    -1.236186  -4.516756  2.051153
C                    0    -0.770849  3.330011  1.765412
H                    0    -1.714643  1.400944  1.808186
C                    0    -2.636315  2.729200  -0.446767
H                    0    -0.572275  2.378514  -0.859447
O                    0    -0.796633  1.067804  -2.986845
C                    0    -3.055100  -0.221515  -2.618247
C                    0    -5.083904  -1.582261  1.241785
H                    0    -3.845214  -3.327743  0.609248
C                    0    -4.671072  -0.409015  1.795516
C                    0    -1.152137  -1.743995  5.530213
H                    0    -2.614556  -1.991190  3.990228
C                    0    1.105297  -1.381251  4.803135
H                    0    1.392747  -1.338143  2.667295
C                    0    -0.670480  -5.294905  -0.552691
H                    0    -0.543605  -3.190332  -0.985003
C                    0    -1.182901  -5.859931  1.723188
H                    0    -1.450982  -4.214116  3.065765
C                    0    -1.717048  3.864015  2.630973
C                    0    0.285902  4.133215  1.350632
C                    0    -2.576068  4.093078  -0.702808
C                    0    -3.875899  2.108422  -0.391205
C                    0    -3.675585  -1.382466  -2.197887
C                    0    -3.769490  0.759323  -3.279031
H                    0    -6.091141  -1.870405  1.020084
H                    0    -5.212464  0.454875  2.129620
C                    0    0.183055  -1.527921  5.827831
H                    0    -1.870444  -1.860934  6.328747
H                    0    2.147967  -1.217992  5.033240
C                    0    -0.902156  -6.250548  0.423645
H                    0    -0.450774  -5.599205  -1.565545
H                    0    -1.360330  -6.605879  2.484282
C                    0    -1.607990  5.169150  3.076467
H                    0    -2.547718  3.250745  2.948239
C                    0    0.399274  5.436552  1.799466
H                    0    1.018476  3.752046  0.652478
C                    0    -3.736761  4.822496  -0.886692
H                    0    -1.616454  4.585528  -0.764418
C                    0    -5.036649  2.835447  -0.582638
H                    0    -3.916799  1.044845  -0.217557
C                    0    -5.023306  -1.565457  -2.446234
H                    0    -3.087229  -2.126313  -1.682642
C                    0    -5.117676  0.571633  -3.526437
H                    0    -3.255746  1.654766  -3.592320
H                    0    0.504733  -1.475235  6.857349
H                    0    -0.861686  -7.300500  0.173362
C                    0    -0.547549  5.957773  2.664612
H                    0    -2.353184  5.572022  3.745939
H                    0    1.224621  6.049150  1.467506
C                    0    -4.970418  4.196239  -0.826589
H                    0    -3.678000  5.882855  -1.084742
H                    0    -5.993737  2.335088  -0.545656
C                    0    -5.760414  -0.588647  -3.108513
H                    0    -5.511828  -2.472895  -2.121081
H                    0    -5.679079  1.336136  -4.043849
H                    0    -0.460943  6.976393  3.011570
H                    0    -5.875413  4.766661  -0.976667
C                    0    -7.228599  -0.776720  -3.344551
H                    0    -7.564442  -0.187816  -4.194255
H                    0    -7.461482  -1.823597  -3.524973
H                    0    -7.789972  -0.454451  -2.466890
N                    0    1.847803  -1.581187  0.160170
N                    0    3.069783  -1.261875  0.023673
H                    0    1.716344  -2.555586  -0.143143
C                    0    3.511021  -0.035118  0.298610
H                    0    2.927359  0.609444  0.968402
C                    0    4.944567  0.161641  0.293380
C                    0    5.520199  1.275284  0.913792
C                    0    5.786500  -0.731305  -0.379971
C                    0    6.881734  1.498177  0.859108
H                    0    4.892426  1.969074  1.455749
C                    0    7.147160  -0.516409  -0.437617
H                    0    5.348776  -1.599943  -0.843807
C                    0    7.689328  0.603444  0.175684
H                    0    7.317857  2.359362  1.341748
H                    0    7.790363  -1.208849  -0.958158
Cl                    0    9.397725  0.883797  0.095882
C                    0    2.659872  0.924986  -1.391470
O                    0    1.439437  0.898118  -1.057011
C                    0    3.326278  2.292652  -1.306693
C                    0    3.202209  0.005003  -2.423148
H                    0    3.195605  2.782776  -2.271350
H                    0    2.837472  2.900198  -0.546627
H                    0    4.386221  2.235760  -1.081944
C                    0    4.494712  0.132609  -2.931808
C                    0    2.390927  -1.022540  -2.905284
C                    0    4.960127  -0.753288  -3.885831
H                    0    5.146468  0.922026  -2.593751
C                    0    2.862859  -1.906229  -3.855611
H                    0    1.372624  -1.108954  -2.549195
C                    0    4.151907  -1.778908  -4.346220
H                    0    5.963810  -0.641928  -4.270381
H                    0    2.218889  -2.694102  -4.218731
H                    0    4.522757  -2.469977  -5.089492

eps=3.06095
epsinf=1.36375
HBondAcidity=0.00
HBondBasicity=0.205
SurfaceTensionAtInterface=24.855
CarbonAromaticity=0.000
ElectronegativeHalogenicity=0.000


