%nprocshared=8
%mem=8GB
%chk=sdf-test.chk
# opt freq 6-31G(d) scrf=(smd,solvent=generic,read) nosymm em=gd3bj pbe1pbe 

sdf-test

0 1
C                    0    6.0211  -0.5668  -0.9125
O                    0    5.4967  0.0996  0.2147
C                    0    4.1264  0.2520  0.3771
C                    0    3.1991  -0.2206  -0.5211
C                    0    1.8205  -0.0468  -0.3217
C                    0    1.3773  0.6096  0.7941
C                    0    -0.0240  0.8169  1.0504
C                    0    -1.0285  0.4267  0.2906
C                    0    -2.4418  0.6580  0.5880
C                    0    -3.2497  -0.6140  0.7258
C                    0    -3.1690  -1.3792  -0.5795
C                    0    -3.9379  -0.4275  -1.5016
C                    0    -4.8986  0.2057  -0.5219
O                    0    -4.6308  -0.3016  0.7294
C                    0    2.2971  1.0827  1.6926
C                    0    3.6632  0.9100  1.4941
H                    0    5.3919  -1.4952  -1.0475
H                    0    7.0483  -0.9583  -0.7199
H                    0    5.9426  0.0006  -1.8432
H                    0    3.5313  -0.7371  -1.4004
H                    0    1.1498  -0.4449  -1.0699
H                    0    -0.3349  1.3512  1.9623
H                    0    -0.7864  -0.1017  -0.6185
H                    0    -2.8694  1.3090  -0.2016
H                    0    -2.5989  1.2224  1.5464
H                    0    -2.9813  -1.2001  1.6021
H                    0    -2.1535  -1.5747  -0.9172
H                    0    -3.7915  -2.3023  -0.4912
H                    0    -4.4636  -0.9801  -2.2941
H                    0    -3.2605  0.3187  -1.9627
H                    0    -4.8700  1.2939  -0.6003
H                    0    -5.9413  -0.1188  -0.7938
H                    0    2.0132  1.6153  2.6036
H                    0    4.3529  1.2973  2.2250

eps=3.06095
epsinf=1.36375
HBondAcidity=0.00
HBondBasicity=0.205
SurfaceTensionAtInterface=24.855
CarbonAromaticity=0.000
ElectronegativeHalogenicity=0.000


