%nprocshared=8
%mem=8GB
%chk=single-xyz-tsmod-opt.chk
# opt=(calcfc,modredundant,maxstep=10) freq genecp scrf=(smd,solvent=generic,read) nosymm em=gd3bj pbe1pbe 

single-xyz-tsmod-opt

0 1
Pd                    0    0.6662274504  -0.5447979454  1.2170952702
P                    0    0.1860550397  0.9747605957  -0.5761320508
O                    0    0.7869415137  0.4823416560  3.9453842026
S                    0    0.0350970100  1.3914541965  3.0830573885
N                    0    -1.6471021277  0.9056091998  3.1411238062
C                    0    -1.9985439881  0.5466919466  1.7648085408
H                    0    -1.1860903501  -0.1155806327  1.3450233276
C                    0    -2.0821991471  1.8054915298  0.9198822532
C                    0    -1.2512246465  2.0711109711  -0.1761448493
C                    0    -3.2945143131  -0.2058986068  1.6109710849
C                    0    -1.9135411505  -0.1070330249  4.1404609553
C                    0    -0.1551756529  0.4652723054  -2.3466633043
C                    0    1.5668176005  2.2257705806  -0.7510758919
C                    0    -3.2872081842  3.8589257595  0.5053090215
C                    0    -2.4937161867  4.1320018070  -0.5982416226
C                    0    -1.5039611211  3.2047171748  -0.9673248142
C                    0    -3.0966625765  2.7001449380  1.2283379173
C                    0    -0.1070461165  2.9303535574  4.1664298258
C                    0    1.3305153146  3.4139773450  4.3024523089
C                    0    -0.9736798236  3.9433363130  3.4451813573
C                    0    -0.6711132997  2.5566782293  5.5233136481
C                    0    -4.4135035319  0.0144938606  2.4065677449
C                    0    -5.5819425624  -0.6892632299  2.1904144054
C                    0    -5.6759558827  -1.6298897572  1.1675425470
C                    0    -4.5528166813  -1.8534866886  0.3739639519
C                    0    -3.3839521884  -1.1565523474  0.5989411637
H                    0    -4.0641945914  4.5429737233  0.8050084490
H                    0    -3.7513694543  2.4913970931  2.0577323649
H                    0    1.7263599308  3.7184514379  3.3371123310
H                    0    1.9488880061  2.6074538306  4.6905330302
H                    0    1.3915990798  4.2601423643  4.9859490101
H                    0    -0.6036341323  4.1203543446  2.4365512337
H                    0    -0.9782022808  4.8916065429  3.9819305982
H                    0    -1.9939079805  3.5789224827  3.3715299116
H                    0    -0.1237219773  1.7043837391  5.9203385229
H                    0    -1.7230934725  2.2987510498  5.4457267509
H                    0    -0.5677425664  3.3871810618  6.2214813381
H                    0    -4.3712348172  0.7319748438  3.2113343951
H                    0    -2.5127631617  -1.3584182667  -0.0116462298
H                    0    -6.4437819469  -0.4910905490  2.8112541280
H                    0    -4.5892795167  -2.5998276176  -0.4061679135
H                    0    -2.7086213583  0.2197456781  4.8138037664
H                    0    -2.2041256805  -1.0619739330  3.6978787356
H                    0    -1.0055984171  -0.2659783515  4.7271304938
C                    0    1.9072465280  2.7322292209  0.6480504811
C                    0    2.7894593491  1.5786921970  -1.3974654722
H                    0    1.2313733900  3.0633636013  -1.3622936054
C                    0    3.1055280852  3.6755010922  0.6267382172
H                    0    2.1369420655  1.8684706674  1.2840982293
H                    0    1.0336445404  3.2431632121  1.0657989881
C                    0    3.9855505911  2.5269643417  -1.3999253388
H                    0    3.0468743064  0.6803845164  -0.8300748937
H                    0    2.5608302657  1.2977558613  -2.4273371533
C                    0    4.3146945510  2.9755353756  0.0179065193
H                    0    3.3383778686  4.0042410500  1.6422831599
H                    0    2.8632381493  4.5638673010  0.0362859221
H                    0    4.8477187450  2.0217081349  -1.8403611120
H                    0    3.7604583520  3.4036079424  -2.0143826603
H                    0    5.1752611095  3.6481669483  0.0101938534
H                    0    4.5714064734  2.1016886442  0.6195417522
C                    0    -6.9245835926  -2.3684261652  0.9355416471
C                    0    -7.6814359363  -2.8422934159  2.0049541744
C                    0    -7.3776374307  -2.6062545482  -0.3604250942
C                    0    -8.8571530132  -3.5345900483  1.7839448987
H                    0    -7.3328506834  -2.6840389313  3.0153473642
C                    0    -8.5561365318  -3.2943639560  -0.5793358291
H                    0    -6.8102340620  -2.2296910722  -1.1992768004
C                    0    -9.2998063188  -3.7615183122  0.4914806486
H                    0    -9.4305358456  -3.9010307782  2.6232496276
H                    0    -8.8982220834  -3.4658036626  -1.5898870326
H                    0    -10.2198534259  -4.3004078802  0.3196392526
O                    0    -2.6083550533  5.2719823134  -1.3537717047
C                    0    -3.5993241560  6.2078488959  -1.0088224962
H                    0    -3.5032449931  7.0130118166  -1.7358787117
H                    0    -4.6035780443  5.7773799933  -1.0776629524
H                    0    -3.4415016732  6.6093942282  -0.0029297591
O                    0    -0.7250395011  3.3587393352  -2.0756569663
C                    0    -1.2718831009  3.9339674287  -3.2550740760
H                    0    -2.3334128801  3.6804456497  -3.3486290196
H                    0    -1.1806800434  5.0280745091  -3.2136069430
C                    0    -0.5100908262  3.4070259492  -4.4433111069
C                    0    0.8774662787  3.3377851132  -4.4120011071
C                    0    -1.1811826376  2.9813942790  -5.5815279115
C                    0    1.5793955940  2.8269698897  -5.4887008410
H                    0    1.4047302212  3.6775028742  -3.5344052983
C                    0    -0.4775358916  2.4858488474  -6.6666273326
H                    0    -2.2600373782  3.0378141168  -5.6201372337
C                    0    0.9028837697  2.3978019413  -6.6184026469
H                    0    2.6568364463  2.7644642552  -5.4458002268
H                    0    -1.0108631660  2.1566265476  -7.5463322254
H                    0    1.4497794199  1.9976536146  -7.4592159734
C                    0    0.6210866925  -0.8160989121  -2.6445505005
C                    0    -1.6367060264  0.2032937520  -2.6069026260
H                    0    0.1947384085  1.2657359193  -3.0044887199
C                    0    0.4416836442  -1.2056426010  -4.1079150445
H                    0    0.2333600193  -1.6205915102  -2.0143221253
H                    0    1.6794337659  -0.6854622736  -2.4139242748
C                    0    -1.8536485928  -0.2217019805  -4.0575522247
H                    0    -1.9820965067  -0.5951340425  -1.9463292316
H                    0    -2.2338678318  1.0915658768  -2.3924237822
C                    0    -1.0341773462  -1.4647862377  -4.3879671057
H                    0    1.0276972634  -2.0995458083  -4.3304539260
H                    0    0.8020717644  -0.3981906477  -4.7519260051
H                    0    -2.9154522914  -0.4184382852  -4.2266261738
H                    0    -1.5521666780  0.5931062543  -4.7197975575
H                    0    -1.1807062159  -1.7384242658  -5.4356561832
H                    0    -1.3697907325  -2.2973963638  -3.7663034527
C                    0    2.7939798419  -0.5551686611  1.4847217050
H                    0    3.0465570794  -0.0583024657  2.4274178195
C                    0    3.7397741112  -1.1153684304  0.7401110212
H                    0    3.4760256807  -1.6460167988  -0.1732556773
C                    0    5.1830311886  -1.1012657505  0.9932562219
C                    0    6.0331167394  -1.8027132802  0.1336414341
C                    0    7.3966509304  -1.8095251304  0.3210720934
C                    0    7.9671372273  -1.1053585946  1.3809320088
C                    0    7.1372392344  -0.3981849607  2.2420641556
C                    0    5.7685586231  -0.4007712046  2.0450026406
H                    0    5.6099555437  -2.3530198260  -0.6957105317
H                    0    8.0498568986  -2.3545310615  -0.3430263115
H                    0    7.5434074192  0.1602831254  3.0716870412
H                    0    5.1473750432  0.1568521228  2.7299120730
O                    0    9.3317074312  -1.1740165428  1.4793537932
C                    0    9.9577296362  -0.4868608660  2.5313195377
H                    0    9.7783244144  0.5923757936  2.4725664505
H                    0    9.6265967486  -0.8553339864  3.5084842834
H                    0    11.0239444570  -0.6792757467  2.4185504156
C                    0    0.6560379713  -2.3447457901  2.5626093836
H                    0    1.6323091461  -2.7991132494  2.4324454360
H                    0    0.4872191587  -1.8629845355  3.5192685998
C                    0    -0.3972364601  -2.7373029473  1.7922386376
H                    0    -1.4164065405  -2.5158753609  2.1081034409
C                    0    1.0821260865  -4.4616163707  -1.3747198608
C                    0    0.9594129604  -5.9743261019  -1.1100474337
C                    0    1.1509594361  -6.8062472025  -2.3772783719
C                    0    2.4969927038  -6.5040133203  -3.0277311943
C                    0    2.6055119718  -5.0169995150  -3.3486930118
C                    0    2.4189469920  -4.1790966910  -2.0858485371
H                    0    1.0899194377  -7.8666855940  -2.1231949723
H                    0    1.7133398902  -6.2608576560  -0.3751170942
H                    0    -0.0254945035  -6.1804972120  -0.6880271343
H                    0    3.2995827539  -6.7833041568  -2.3415840332
H                    0    2.6136697315  -7.0945925917  -3.9391323445
H                    0    3.5830917509  -4.7992379631  -3.7840384935
H                    0    1.8531652813  -4.7474502490  -4.0965437882
H                    0    3.2295443686  -4.3977548864  -1.3886465236
H                    0    2.4633417869  -3.1176353780  -2.3362236090
H                    0    0.3451225894  -6.5977256031  -3.0872619093
C                    0    1.0531594109  -3.6719155879  -0.0564893407
H                    0    1.2749591728  -2.6138994784  -0.2670731617
H                    0    1.8389503037  -4.0610047958  0.5915141148
C                    0    -0.2977366296  -3.7187124436  0.6558281557
H                    0    -0.4775603355  -4.7216281342  1.0622371782
H                    0    -1.0831475380  -3.5212066571  -0.0778386108
O                    0    -0.0120445899  -4.0053448913  -2.1547833165
H                    0    0.0373859054  -4.4374225144  -3.0133815545

B 1 122 F
B 1 123 F
B 122 126 F
B 123 126 F

C H O N P S 0
6-31G(d)
****
Pd 0
SDD
****

Pd 0
SDD

eps=3.06095
epsinf=1.36375
HBondAcidity=0.00
HBondBasicity=0.205
SurfaceTensionAtInterface=24.855
CarbonAromaticity=0.000
ElectronegativeHalogenicity=0.000




