%nprocshared=8
%mem=8GB
%chk=ts-sp.chk
# genecp scrf=(smd,solvent=generic,read) nosymm em=gd3bj pbe1pbe 

ts-sp

0 1
Pd                    0    0.17707400  1.58709400  0.91053600
P                    0    0.04963100  -0.73488300  0.59580500
O                    0    -1.43993000  4.22740300  -2.25031400
S                    0    -0.55203200  3.00683200  -2.20928400
N                    0    -1.38698700  1.67882500  -2.82067000
C                    0    -1.50756300  0.55057100  -1.87680100
H                    0    -1.24950300  0.96844200  -0.89346900
C                    0    -0.48314400  -0.52969200  -2.18865200
C                    0    0.35978800  -1.10890000  -1.20284300
C                    0    -2.93830000  0.06539400  -1.76113200
C                    0    -2.29237400  1.87714800  -3.93609600
C                    0    -1.59095900  -1.59969700  0.84481000
C                    0    1.30572500  -1.53680100  1.72460800
C                    0    0.61209200  -1.80698900  -3.94505300
C                    0    1.48398600  -2.33385500  -3.00695600
C                    0    1.36912800  -1.97641400  -1.66416800
C                    0    -0.34559800  -0.89314100  -3.53035500
C                    0    0.75495900  3.33898300  -3.49945400
C                    0    1.69315800  4.31547200  -2.78801700
C                    0    1.47352700  2.03722500  -3.80695000
C                    0    0.14991500  3.98561100  -4.73428800
C                    0    -3.80475700  0.78424700  -0.92952500
C                    0    -5.12473500  0.38620900  -0.77235200
C                    0    -5.62631000  -0.73673500  -1.44704000
C                    0    -4.75826500  -1.43979800  -2.29014100
C                    0    -3.43149800  -1.04812700  -2.44080800
H                    0    0.68801000  -2.09221500  -4.99056900
H                    0    -0.99857700  -0.43194800  -4.26433100
H                    0    2.14634300  3.86152800  -1.89851700
H                    0    1.16572300  5.22642400  -2.48564100
H                    0    2.50402400  4.60114000  -3.46851700
H                    0    2.36890600  2.25009200  -4.40469700
H                    0    0.83987400  1.34742400  -4.36957300
H                    0    1.79540400  1.52572700  -2.89167400
H                    0    0.95050100  4.40997800  -5.35238800
H                    0    -0.53013700  4.79449300  -4.44734900
H                    0    -0.39978100  3.26433000  -5.34590900
H                    0    -3.40831600  1.62017100  -0.35584800
H                    0    -2.77717400  -1.62532800  -3.08721700
H                    0    -5.76797500  0.92799800  -0.08360700
H                    0    -5.12634800  -2.30073100  -2.84185800
H                    0    -2.51280300  2.94564400  -4.02738900
H                    0    -1.87341800  1.51621700  -4.88500000
H                    0    -3.23886200  1.36173700  -3.75374700
C                    0    1.28208700  -0.80212600  3.07572400
C                    0    1.24909700  -3.05210300  1.94325200
H                    0    2.26423100  -1.28908300  1.25699000
C                    0    2.44125600  -1.26407100  3.95497600
H                    0    0.33478600  -0.99448600  3.59607600
H                    0    1.33648900  0.27953700  2.90843700
C                    0    2.39682400  -3.51197400  2.84485800
H                    0    0.30150300  -3.32702100  2.42085000
H                    0    1.30018900  -3.57727900  0.98762100
C                    0    2.40312100  -2.77220200  4.17799200
H                    0    2.41216400  -0.73065300  4.91404200
H                    0    3.38910100  -0.99289100  3.46705200
H                    0    2.32066800  -4.59508400  3.00589700
H                    0    3.35065300  -3.33828300  2.33177000
H                    0    3.25897600  -3.09148300  4.78620900
H                    0    1.49602400  -3.02909200  4.74596600
C                    0    -7.02218200  -1.18065600  -1.25257300
C                    0    -7.33887100  -2.54484700  -1.19756700
C                    0    -8.05925000  -0.24902100  -1.11172900
C                    0    -8.65212100  -2.96407100  -1.01210400
H                    0    -6.54331900  -3.28160600  -1.27491000
C                    0    -9.37243000  -0.66818700  -0.92568800
H                    0    -7.83485300  0.81261500  -1.17266200
C                    0    -9.67471800  -2.02745300  -0.87615900
H                    0    -8.87601600  -4.02659500  -0.96425500
H                    0    -10.16387300  0.07018900  -0.82703900
H                    0    -10.70069100  -2.35480900  -0.73108400
O                    0    2.26482600  -2.53277500  -0.79421500
C                    0    3.59126300  -2.01349900  -0.91100900
H                    0    3.90040900  -2.03610900  -1.96584500
H                    0    3.60637300  -0.96721600  -0.58307300
C                    0    4.51252500  -2.84245500  -0.06853700
C                    0    5.44816000  -2.22270800  0.75937500
C                    0    4.44505400  -4.23752900  -0.10321800
C                    0    6.30856400  -2.98663700  1.54508500
H                    0    5.49610100  -1.13850500  0.79916000
C                    0    5.29780700  -5.00047400  0.68800500
H                    0    3.70497500  -4.72076500  -0.73540300
C                    0    6.23213900  -4.37656400  1.51485200
H                    0    7.02993100  -2.48972800  2.18850000
H                    0    5.23146800  -6.08512100  0.66373600
H                    0    6.89504600  -4.97405300  2.13521100
C                    0    -1.71193700  -2.96882300  0.16360200
C                    0    -2.01539100  -1.68268900  2.31305600
H                    0    -2.30249900  -0.92274400  0.35499600
C                    0    -3.12535400  -3.53170200  0.31836000
H                    0    -0.99054100  -3.66841600  0.60217800
H                    0    -1.46400100  -2.88485100  -0.89985600
C                    0    -3.44025700  -2.22043300  2.42983400
H                    0    -1.34512700  -2.34746000  2.86946300
H                    0    -1.94430400  -0.69889400  2.78139600
C                    0    -3.56231400  -3.59340400  1.77841800
H                    0    -3.17481700  -4.52696000  -0.14234900
H                    0    -3.82299300  -2.88942400  -0.23542300
H                    0    -3.73329400  -2.26458100  3.48670700
H                    0    -4.13376200  -1.52521000  1.93545800
H                    0    -4.59403700  -3.96015800  1.85010000
H                    0    -2.93053400  -4.31127700  2.32269500
C                    0    2.06338200  1.34851200  0.35056500
H                    0    2.21095200  1.08625700  -0.70407900
C                    0    3.15450800  1.53550800  1.11511900
H                    0    3.02445100  1.77083600  2.17380100
C                    0    4.55994300  1.41665900  0.70336600
C                    0    5.56382000  1.36631200  1.68684800
C                    0    6.90036800  1.20041100  1.36028000
C                    0    7.28760300  1.08037100  0.02115500
C                    0    6.31177900  1.14958100  -0.97817000
C                    0    4.97465100  1.32183400  -0.63189400
H                    0    5.27938600  1.44619500  2.73413000
H                    0    7.66541200  1.15567000  2.13024200
H                    0    6.58181900  1.07779400  -2.02642900
H                    0    4.23713500  1.38781000  -1.42813300
O                    0    8.61240800  0.90984400  -0.20525600
C                    0    9.03106100  0.75768500  -1.54330700
H                    0    8.56650500  -0.11860800  -2.01435800
H                    0    8.80798900  1.65070800  -2.14199400
H                    0    10.11269400  0.61335200  -1.50753600
O                    0    -1.84665500  2.21454200  1.32416100
C                    0    0.58866600  3.72391100  1.09072800
H                    0    1.18269300  3.86129100  1.99542300
H                    0    1.12363500  3.87413000  0.15666100
C                    0    -0.77362700  4.03360800  1.13589100
H                    0    -1.29640900  4.18023100  0.19330100
C                    0    -2.45343800  2.39881000  2.57217000
C                    0    -3.77835300  1.62031600  2.58735300
C                    0    -4.46665500  1.59746300  3.95081300
C                    0    -3.53129700  1.07324900  5.03671400
C                    0    -2.24387800  1.89059000  5.08708700
C                    0    -1.55457300  1.91699900  3.72442900
H                    0    -4.79974300  2.61019100  4.21995000
H                    0    -4.44283100  2.05317500  1.82845600
H                    0    -3.56859500  0.59457400  2.26604300
H                    0    -4.03279600  1.08603600  6.01293900
H                    0    -3.28282000  0.02275700  4.82340500
H                    0    -2.47783000  2.91510400  5.41054400
H                    0    -1.55863700  1.47944300  5.84002500
H                    0    -0.64550900  2.52973400  3.76235800
H                    0    -1.21597700  0.90677500  3.46850500
H                    0    -5.37174100  0.97854100  3.89621500
C                    0    -2.72756400  3.90758700  2.67241400
H                    0    -3.11327900  4.22140700  3.64877600
H                    0    -3.48409500  4.16171700  1.91881700
C                    0    -1.42464900  4.61891500  2.34651500
H                    0    -0.73078900  4.59013000  3.19423900
H                    0    -1.61043700  5.67925000  2.12282000
H                    0    2.26079100  -3.03858100  -3.29029000

C H O N P S 0
def2tzvp
****
Pd 0
SDD
****

Pd 0
SDD

eps=3.06095
epsinf=1.36375
HBondAcidity=0.00
HBondBasicity=0.205
SurfaceTensionAtInterface=24.855
CarbonAromaticity=0.000
ElectronegativeHalogenicity=0.000



