%nprocshared=8
%mem=8GB
%chk=tsmod-opt-1.chk
# opt=(calcfc,modredundant,maxstep=10) freq genecp scrf=(smd,solvent=generic,read) nosymm em=gd3bj pbe1pbe 

tsmod-opt-1

0 1
Pd                    0    -1.056749  -0.558560  2.143964
P                    0    -0.710196  1.012850  0.446560
O                    0    1.822999  -4.297486  1.681019
S                    0    0.517158  -3.790495  1.108883
N                    0    0.746972  -3.178627  -0.470389
C                    0    0.948120  -1.711806  -0.484631
H                    0    0.684255  -1.349686  0.521678
C                    0    0.053371  -0.987996  -1.478412
C                    0    -0.419889  0.334663  -1.267089
C                    0    2.415324  -1.349465  -0.714498
C                    0    1.600785  -3.987296  -1.338806
C                    0    0.611346  2.262903  0.867204
C                    0    -2.277539  2.019308  0.418231
C                    0    -0.616611  -0.859312  -3.804754
C                    0    -0.912532  0.492293  -3.667566
C                    0    -0.840257  1.077145  -2.395704
C                    0    -0.126094  -1.582783  -2.729005
C                    0    -0.468741  -5.347409  0.779716
C                    0    -1.093591  -5.617500  2.151722
C                    0    -1.549946  -5.074610  -0.248616
C                    0    0.445421  -6.498128  0.389968
C                    0    3.364052  -1.814806  0.203036
C                    0    4.702577  -1.471799  0.082961
C                    0    5.150700  -0.662922  -0.970703
C                    0    4.206140  -0.234130  -1.909604
C                    0    2.861839  -0.573280  -1.785712
H                    0    -0.679884  -1.300748  -4.793759
H                    0    0.179727  -2.611603  -2.878547
H                    0    -1.759046  -4.803286  2.459651
H                    0    -0.324252  -5.753243  2.920341
H                    0    -1.686454  -6.538191  2.101387
H                    0    -2.239331  -5.927931  -0.279730
H                    0    -1.139728  -4.938396  -1.253053
H                    0    -2.132503  -4.188770  0.009173
H                    0    -0.105370  -7.439815  0.502477
H                    0    1.326425  -6.530962  1.038913
H                    0    0.778169  -6.426954  -0.648492
H                    0    3.046641  -2.461519  1.016852
H                    0    2.159478  -0.211376  -2.529610
H                    0    5.409189  -1.816998  0.833186
H                    0    4.527065  0.358629  -2.762177
H                    0    2.328735  -4.563304  -0.754641
H                    0    0.997361  -4.674310  -1.941097
H                    0    2.165892  -3.339758  -2.011932
C                    0    -3.456487  1.328449  -0.259874
C                    0    -2.646206  2.373383  1.866285
H                    0    -2.055501  2.940621  -0.129352
C                    0    -4.709084  2.200839  -0.216814
H                    0    -3.657537  0.379115  0.242527
H                    0    -3.205305  1.076675  -1.291351
C                    0    -3.879410  3.273781  1.896396
H                    0    -2.856663  1.442863  2.412487
H                    0    -1.809707  2.850377  2.390544
C                    0    -5.063089  2.594598  1.214273
H                    0    -5.542687  1.663220  -0.686116
H                    0    -4.550696  3.116637  -0.805919
H                    0    -4.127352  3.527606  2.934822
H                    0    -3.653057  4.219591  1.381723
H                    0    -5.943485  3.249839  1.226454
H                    0    -5.330838  1.690554  1.781144
C                    0    6.573024  -0.278557  -1.084957
C                    0    6.938031  0.992597  -1.549149
C                    0    7.590682  -1.173769  -0.728238
C                    0    8.276471  1.356198  -1.654933
H                    0    6.163255  1.710208  -1.806543
C                    0    8.929168  -0.810117  -0.833236
H                    0    7.329131  -2.172324  -0.387935
C                    0    9.278217  0.456215  -1.297640
H                    0    8.537609  2.349956  -2.009366
H                    0    9.702770  -1.522428  -0.558591
H                    0    10.323958  0.740079  -1.379462
O                    0    -1.223600  2.372767  -2.218281
C                    0    -0.449300  3.373048  -2.882652
H                    0    0.590189  3.322815  -2.531554
H                    0    -0.448899  3.183727  -3.960126
C                    0    -1.049978  4.711549  -2.570731
C                    0    -2.415708  4.837952  -2.307583
C                    0    -0.247749  5.854672  -2.573498
C                    0    -2.968945  6.088929  -2.043774
H                    0    -3.039016  3.948972  -2.306632
C                    0    -0.801944  7.105363  -2.316171
H                    0    0.818738  5.764373  -2.769504
C                    0    -2.164609  7.225953  -2.048723
H                    0    -4.031838  6.172952  -1.832017
H                    0    -0.166728  7.987247  -2.315942
H                    0    -2.595281  8.201274  -1.838955
C                    0    1.949310  1.861681  0.247253
C                    0    0.277826  3.724812  0.557765
H                    0    0.682230  2.143446  1.957648
C                    0    3.083246  2.810320  0.626271
H                    0    1.846185  1.845300  -0.846535
H                    0    2.211056  0.842893  0.544782
C                    0    1.422693  4.653096  0.961135
H                    0    0.075768  3.845436  -0.511288
H                    0    -0.631007  4.038422  1.079232
C                    0    2.735126  4.256263  0.295201
H                    0    3.999493  2.498584  0.109420
H                    0    3.288656  2.725293  1.702316
H                    0    1.155334  5.686287  0.705250
H                    0    1.547951  4.618542  2.053498
H                    0    3.543758  4.928834  0.607876
H                    0    2.636816  4.365761  -0.795795
C                    0    -2.161798  -1.582939  0.865510
H                    0    -1.610288  -1.881079  -0.028997
C                    0    -3.466160  -1.921269  0.873597
H                    0    -4.096496  -1.691429  1.735721
C                    0    -4.167902  -2.547330  -0.259770
C                    0    -5.439367  -3.119087  -0.090094
C                    0    -6.109725  -3.732968  -1.136691
C                    0    -5.528855  -3.798619  -2.406827
C                    0    -4.268969  -3.227122  -2.608209
C                    0    -3.616971  -2.601655  -1.549571
H                    0    -5.905367  -3.090288  0.892971
H                    0    -7.092060  -4.173689  -0.991330
H                    0    -3.788980  -3.255870  -3.581991
H                    0    -2.648452  -2.148358  -1.738329
O                    0    -6.255849  -4.421100  -3.368113
C                    0    -5.711847  -4.464852  -4.667951
H                    0    -5.547216  -3.457309  -5.072295
H                    0    -4.766387  -5.022810  -4.694595
H                    0    -6.447597  -4.981852  -5.287434
O                    0    0.017173  0.467198  3.720270
C                    0    -1.834857  -1.759977  3.772882
H                    0    -1.464764  -2.769792  3.604749
H                    0    -2.902397  -1.610707  3.618309
C                    0    -1.177021  -0.957219  4.710395
H                    0    -1.710620  -0.100640  5.114580
C                    0    1.288182  0.161490  4.226418
C                    0    2.042335  -0.837722  3.337409
C                    0    3.482060  -1.083580  3.781663
C                    0    4.261351  0.225742  3.852793
C                    0    3.554135  1.238479  4.751376
C                    0    2.109164  1.458663  4.303828
H                    0    3.492638  -1.573704  4.765319
H                    0    1.490215  -1.782880  3.271131
H                    0    2.049253  -0.412850  2.324384
H                    0    5.284279  0.047148  4.208687
H                    0    4.348446  0.639888  2.837119
H                    0    3.575546  0.881536  5.790886
H                    0    4.092521  2.195333  4.742868
H                    0    1.592738  2.165930  4.965886
H                    0    2.116797  1.907150  3.303792
H                    0    3.970897  -1.780910  3.091253
C                    0    1.052481  -0.397032  5.638940
H                    0    0.692507  0.423812  6.273622
H                    0    1.954863  -0.803064  6.107131
C                    0    -0.026925  -1.457168  5.519480
H                    0    -0.422353  -1.723944  6.510333
H                    0    0.364772  -2.378840  5.073607
O                    0    -1.075636  1.233511  -4.810400
C                    0    -2.439952  1.561576  -5.222853
C                    0    -2.283372  2.791785  -6.104306
H                    0    -1.477107  2.613750  -6.823499
H                    0    -3.203309  2.973536  -6.668780
H                    0    -2.039588  3.693718  -5.532181
C                    0    -3.039084  0.427196  -6.044894
H                    0    -2.485987  0.285704  -6.980226
H                    0    -3.042725  -0.512663  -5.485232
H                    0    -4.077660  0.667801  -6.292769
C                    0    -3.298421  1.845056  -4.010701
H                    0    -3.567286  0.968840  -3.418787
H                    0    -2.709310  2.495980  -3.354982
H                    0    -4.212530  2.373737  -4.292782

B 1 122 F
B 1 123 F
B 122 126 F
B 123 126 F

C H O N P S 0
6-31G(d)
****
Pd 0
SDD
****

Pd 0
SDD

eps=3.06095
epsinf=1.36375
HBondAcidity=0.00
HBondBasicity=0.205
SurfaceTensionAtInterface=24.855
CarbonAromaticity=0.000
ElectronegativeHalogenicity=0.000




