%nprocshared=4
%mem=4GB
%chk=Xu6-test-check.chk
# opt freq genecp scrf=(smd,solvent=generic,read) nosymm em=gd3bj pbe1pbe

Xu6-test-title

0 2
Pd                    0    -1.001167  -0.578226  2.098353
P                    0    -0.642244  1.025958  0.436720
O                    0    1.805674  -4.266657  1.642498
S                    0    0.543257  -3.732836  1.002370
N                    0    0.876179  -3.099039  -0.546685
C                    0    1.065723  -1.630651  -0.526388
H(Iso=2)                    0    0.758851  -1.294682  0.476827
C                    0    0.186284  -0.905437  -1.532320
C                    0    -0.363484  0.384019  -1.293365
C                    0    2.536332  -1.259072  -0.690579
C                    0    1.770731  -3.898807  -1.380523
C                    0    0.673574  2.276788  0.882077
C                    0    -2.198371  2.051431  0.442645
C                    0    -0.560637  -0.815174  -3.845273
C                    0    -1.037604  0.476519  -3.660942
C                    0    -0.891220  1.084459  -2.399358
C                    0    0.056471  -1.480585  -2.796697
C                    0    -0.449529  -5.266432  0.589213
C                    0    -1.159875  -5.549362  1.916249
C                    0    -1.467877  -4.956604  -0.492985
C                    0    0.467537  -6.426519  0.233287
C                    0    3.448333  -1.728963  0.261048
C                    0    4.790314  -1.385130  0.193973
C                    0    5.277713  -0.571468  -0.838984
C                    0    4.370457  -0.141161  -1.813154
C                    0    3.022769  -0.481469  -1.741875
H                    0    -0.635634  -1.273667  -4.825781
H                    0    0.464691  -2.468934  -2.974208
H                    0    -1.824572  -4.724326  2.195819
H                    0    -0.442215  -5.717085  2.727285
H                    0    -1.769742  -6.454267  1.811936
H                    0    -2.106523  -5.836472  -0.642258
H                    0    -0.996101  -4.711087  -1.448352
H                    0    -2.114394  -4.124558  -0.205359
H                    0    -0.089834  -7.364955  0.339860
H                    0    1.329714  -6.456418  0.907501
H                    0    0.830131  -6.368307  -0.796054
H                    0    3.098563  -2.380996  1.057391
H                    0    2.346433  -0.120913  -2.510814
H                    0    5.467774  -1.731888  0.969922
H                    0    4.724322  0.454440  -2.650678
H                    0    2.470810  -4.478976  -0.766978
H                    0    1.197322  -4.581047  -2.016842
H                    0    2.365912  -3.245171  -2.020696
C                    0    -3.420315  1.406513  -0.204716
C                    0    -2.525195  2.415263  1.897494
H                    0    -1.973461  2.966401  -0.111591
C                    0    -4.606721  2.367300  -0.174282
H                    0    -3.679110  0.495625  0.340149
H                    0    -3.203721  1.105375  -1.231488
C                    0    -3.706403  3.383267  1.945319
H                    0    -2.774369  1.492058  2.439888
H                    0    -1.658107  2.845479  2.412156
C                    0    -4.933551  2.793249  1.254673
H                    0    -5.478176  1.890393  -0.641008
H                    0    -4.374195  3.260666  -0.771825
H                    0    -3.937674  3.635821  2.987995
H                    0    -3.423422  4.322146  1.445961
H                    0    -5.760943  3.514382  1.262572
H                    0    -5.273671  1.913531  1.820983
C                    0    6.701967  -0.181715  -0.895136
C                    0    7.079023  1.093477  -1.338084
C                    0    7.708776  -1.073634  -0.501457
C                    0    8.418674  1.464487  -1.387318
H                    0    6.311360  1.808450  -1.622807
C                    0    9.048428  -0.702507  -0.549613
H                    0    7.438887  -2.074995  -0.176346
C                    0    9.409641  0.567894  -0.993283
H                    0    8.688687  2.461475  -1.725685
H                    0    9.813885  -1.412020  -0.246382
H                    0    10.456291  0.857641  -1.030325
O                    0    -1.293886  2.379099  -2.240402
C                    0    -0.547596  3.335539  -2.999488
H                    0    0.519041  3.246247  -2.753296
H                    0    -0.669705  3.123978  -4.067107
C                    0    -1.051142  4.707652  -2.661621
C                    0    -2.410186  4.933175  -2.433556
C                    0    -0.162535  5.781794  -2.586414
C                    0    -2.871013  6.210130  -2.125571
H                    0    -3.103918  4.099800  -2.484296
C                    0    -0.623488  7.061801  -2.288908
H                    0    0.899456  5.612373  -2.751889
C                    0    -1.979302  7.278400  -2.052904
H                    0    -3.930029  6.370367  -1.940296
H                    0    0.079935  7.888110  -2.229195
H                    0    -2.338688  8.274562  -1.809338
C                    0    2.036176  1.850615  0.337413
C                    0    0.365619  3.726100  0.496715
H                    0    0.690323  2.197721  1.978513
C                    0    3.157428  2.814842  0.717164
H                    0    1.977113  1.790694  -0.757552
H                    0    2.288049  0.845308  0.685252
C                    0    1.494430  4.671241  0.904355
H                    0    0.215887  3.794595  -0.584904
H                    0    -0.564077  4.068228  0.960354
C                    0    2.829128  4.244465  0.305809
H                    0    4.092640  2.476763  0.253556
H                    0    3.319423  2.783003  1.803313
H                    0    1.236837  5.691558  0.592828
H                    0    1.577604  4.685529  2.001185
H                    0    3.628821  4.928318  0.617088
H                    0    2.770293  4.304321  -0.791951
C                    0    -2.096545  -1.561644  0.776933
H                    0    -1.549441  -1.862454  -0.120480
C                    0    -3.413280  -1.841362  0.781256
H                    0    -4.028210  -1.593204  1.649193
C                    0    -4.160350  -2.406664  -0.352104
C                    0    -5.452655  -2.925343  -0.164880
C                    0    -6.189459  -3.447651  -1.216131
C                    0    -5.655961  -3.466842  -2.509106
C                    0    -4.375072  -2.951079  -2.724366
C                    0    -3.652161  -2.423226  -1.658900
H                    0    -5.884388  -2.920020  0.834092
H                    0    -7.188011  -3.845705  -1.058841
H                    0    -3.935836  -2.940445  -3.716535
H                    0    -2.668990  -2.004945  -1.857380
O                    0    -6.449448  -3.987061  -3.479035
C                    0    -5.943917  -3.997340  -4.794452
H                    0    -5.732623  -2.981730  -5.156070
H                    0    -5.031764  -4.603702  -4.874252
H                    0    -6.723389  -4.442687  -5.416115
O                    0    0.042355  0.427049  3.707921
C                    0    -1.813482  -1.781518  3.709086
H                    0    -1.448583  -2.796092  3.553484
H                    0    -2.877410  -1.628729  3.536265
C                    0    -1.178404  -0.991950  4.673119
H                    0    -1.718249  -0.136505  5.071741
C                    0    1.302314  0.102375  4.230394
C                    0    2.050833  -0.911327  3.352689
C                    0    3.483840  -1.173478  3.809537
C                    0    4.279061  0.126197  3.884143
C                    0    3.577959  1.147823  4.777279
C                    0    2.140426  1.387174  4.316605
H                    0    3.480061  -1.660435  4.794907
H                    0    1.487526  -1.849939  3.287987
H                    0    2.068924  -0.494216  2.336966
H                    0    5.297335  -0.064508  4.247048
H                    0    4.377818  0.538912  2.868930
H                    0    3.585044  0.789927  5.816664
H                    0    4.129186  2.097399  4.774372
H                    0    1.627160  2.101323  4.973758
H                    0    2.162538  1.834107  3.316651
H                    0    3.969381  -1.879793  3.125831
C                    0    1.039480  -0.450934  5.640072
H                    0    0.679725  0.375239  6.267830
H                    0    1.930400  -0.866167  6.122113
C                    0    -0.049258  -1.500439  5.506153
H                    0    -0.465328  -1.757574  6.491025
H                    0    0.341700  -2.427960  5.072165
O                    0    -1.547829  1.197671  -4.698688
C                    0    -2.938616  1.013957  -5.097330
C                    0    -3.188897  2.198253  -6.016803
H                    0    -2.476348  2.194555  -6.848485
H                    0    -4.202681  2.154647  -6.427611
H                    0    -3.076529  3.139696  -5.468468
C                    0    -3.095000  -0.300807  -5.851714
H                    0    -2.386746  -0.357488  -6.685367
H                    0    -2.934447  -1.158784  -5.191000
H                    0    -4.110538  -0.379031  -6.255967
C                    0    -3.863370  1.054333  -3.892025
H                    0    -3.693073  0.201765  -3.226684
H                    0    -3.717973  1.977667  -3.325031
H                    0    -4.905697  1.009633  -4.225135

C H O N P S 0
6-31G(d)
****
Pd 0
SDD
****

Pd 0
SDD

eps=3.06095
epsinf=1.36375
HBondAcidity=0.00
HBondBasicity=0.205
SurfaceTensionAtInterface=24.855
CarbonAromaticity=0.000
ElectronegativeHalogenicity=0.000



