%nprocshared=8
%mem=8GB
%chk=xtbscan-opt.chk
# opt freq 6-31G(d) scrf=(smd,solvent=generic,read) nosymm em=gd3bj pbe1pbe 

xtbscan-opt

0 1
Ru                    0    0.757656  -0.392564  -1.106247
N                    0    -0.253271  0.769233  0.271498
C                    0    -1.681301  0.721037  0.165085
S                    0    0.773067  1.968731  0.227506
H                    0    -2.049164  0.166205  1.051564
C                    0    -2.091359  -0.113919  -1.093686
C                    0    -2.361243  2.066956  0.132471
O                    0    1.980929  1.399248  -0.400965
O                    0    0.360424  3.267516  -0.237606
C                    0    1.215884  2.196528  1.956502
H                    0    -1.945667  0.512347  -1.979333
N                    0    -1.194544  -1.276749  -1.241426
C                    0    -3.542040  -0.499201  -0.975112
C                    0    -3.125817  2.476851  1.216667
C                    0    -2.218376  2.921682  -0.953957
C                    0    0.241751  2.640194  2.831928
C                    0    2.476658  1.868860  2.418799
H                    0    -1.323694  -1.902069  -0.442768
H                    0    -1.455997  -1.793091  -2.083848
C                    0    -4.504312  0.173979  -1.718021
C                    0    -3.950738  -1.484288  -0.081858
C                    0    -3.738100  3.718171  1.219282
H                    0    -3.242882  1.814395  2.064653
C                    0    -2.825462  4.163667  -0.948625
H                    0    -1.606450  2.633100  -1.794407
C                    0    0.529718  2.744165  4.181176
H                    0    -0.730975  2.899595  2.441437
C                    0    2.758682  1.968526  3.770305
H                    0    3.218889  1.530211  1.712950
C                    0    -5.845209  -0.136356  -1.580269
H                    0    -4.198182  0.952017  -2.401982
C                    0    -5.291436  -1.797311  0.052263
H                    0    -3.223484  -2.003761  0.527431
C                    0    -3.587005  4.565147  0.135809
H                    0    -4.330134  4.023892  2.070096
H                    0    -2.696865  4.823824  -1.793523
C                    0    1.787978  2.401977  4.667110
H                    0    -0.229377  3.092849  4.867087
H                    0    3.741577  1.702928  4.132419
C                    0    -6.242144  -1.126238  -0.697562
H                    0    -6.581771  0.396040  -2.163173
H                    0    -5.595175  -2.565037  0.748785
H                    0    -4.058781  5.536987  0.138232
C                    0    2.104236  2.520957  6.127140
H                    0    -7.288272  -1.370634  -0.590443
H                    0    2.766819  1.719273  6.445567
H                    0    2.607986  3.468176  6.320962
H                    0    1.197953  2.492114  6.726934
P                    0    1.410433  -1.751051  0.536331
C                    0    2.995343  -1.445220  1.368426
C                    0    0.201077  -1.920570  1.891552
C                    0    1.648041  -3.478342  0.049876
C                    0    3.979503  -0.846613  0.586600
C                    0    3.266168  -1.781829  2.689859
C                    0    0.127734  -0.919764  2.857151
C                    0    -0.787586  -2.901710  1.855665
C                    0    2.497416  -4.489070  0.408544
O                    0    0.848170  -3.888317  -0.964754
C                    0    5.224139  -0.577648  1.126114
H                    0    3.738609  -0.580784  -0.437442
C                    0    4.511823  -1.504683  3.225427
H                    0    2.504895  -2.254901  3.294353
C                    0    -0.910059  -0.903507  3.769534
H                    0    0.888676  -0.155021  2.881351
C                    0    -1.820276  -2.888597  2.777599
H                    0    -0.739154  -3.689209  1.114092
C                    0    2.187822  -5.582407  -0.432431
H                    0    3.244308  -4.450515  1.174777
C                    0    1.181561  -5.157616  -1.244540
C                    0    5.488048  -0.902361  2.447913
H                    0    5.986830  -0.109576  0.521379
H                    0    4.722893  -1.760713  4.253918
C                    0    -1.888758  -1.884926  3.730158
H                    0    -0.957115  -0.118570  4.510304
H                    0    -2.577032  -3.660263  2.750379
H                    0    2.653658  -6.546497  -0.433371
H                    0    0.638810  -5.651340  -2.027170
H                    0    6.457070  -0.685875  2.873740
H                    0    -2.702918  -1.869182  4.439648
C                    0    0.573830  1.229302  -3.756468
O                    0    0.169348  1.126389  -2.572251
C                    0    0.095007  0.211458  -4.777193
H                    0    0.853322  -0.021560  -5.516849
H                    0    -0.198495  -0.704774  -4.262891
H                    0    -0.779483  0.625754  -5.281904
C                    0    1.030624  2.535217  -4.265823
C                    0    1.269584  2.768765  -5.622907
C                    0    1.229762  3.580290  -3.359248
C                    0    1.702170  4.007664  -6.052283
H                    0    1.125792  1.985851  -6.349809
C                    0    1.654594  4.818547  -3.798521
H                    0    1.039424  3.412016  -2.309298
C                    0    1.898164  5.036353  -5.144792
H                    0    1.891473  4.171973  -7.103078
H                    0    1.799054  5.615434  -3.083771
H                    0    2.239372  6.002228  -5.487819
C                    0    2.726378  0.465521  -3.418316
H                    0    2.676743  0.970904  -2.449544
C                    0    3.536868  1.083018  -4.436399
C                    0    4.138971  2.322451  -4.191514
C                    0    3.695177  0.508117  -5.702482
C                    0    4.845902  2.977415  -5.176943
H                    0    4.036626  2.772831  -3.215337
C                    0    4.403532  1.155012  -6.693207
H                    0    3.259322  -0.461285  -5.889211
C                    0    4.965325  2.394178  -6.428558
H                    0    5.298934  3.937583  -4.983503
H                    0    4.518806  0.709607  -7.669847
Cl                    0    5.828823  3.225954  -7.679510
N                    0    2.389256  -0.804711  -3.533144
N                    0    1.697764  -1.371737  -2.609251
H                    0    1.542811  -2.354475  -2.856680

eps=3.06095
epsinf=1.36375
HBondAcidity=0.00
HBondBasicity=0.205
SurfaceTensionAtInterface=24.855
CarbonAromaticity=0.000
ElectronegativeHalogenicity=0.000


