%nprocshared=8
%mem=8GB
%chk=xtbscan-opt.chk
# opt freq 6-31G(d) scrf=(smd,solvent=generic,read) nosymm em=gd3bj pbe1pbe 

xtbscan-opt

0 1
Ru                    0    0.926042  -0.347463  -1.072184
N                    0    -0.129369  0.794319  0.295388
C                    0    -1.556240  0.784829  0.119301
S                    0    0.924697  1.973706  0.280031
H                    0    -1.978780  0.243300  0.989494
C                    0    -1.925976  -0.027145  -1.163216
C                    0    -2.183100  2.154967  0.053177
O                    0    2.132336  1.378955  -0.343794
O                    0    0.569509  3.302864  -0.132021
C                    0    1.352691  2.131550  2.022677
H                    0    -1.712174  0.608895  -2.027540
N                    0    -1.039337  -1.202594  -1.302899
C                    0    -3.384155  -0.394429  -1.119137
C                    0    -2.967583  2.610113  1.104001
C                    0    -1.962228  2.986559  -1.038329
C                    0    0.362330  2.542589  2.897563
C                    0    2.607989  1.800162  2.494387
H                    0    -1.237041  -1.868259  -0.552366
H                    0    -1.251195  -1.656328  -2.193938
C                    0    -4.298128  0.298491  -1.903817
C                    0    -3.851271  -1.381470  -0.257321
C                    0    -3.524507  3.877115  1.068446
H                    0    -3.145841  1.964633  1.954834
C                    0    -2.514363  4.253345  -1.070084
H                    0    -1.331320  2.655430  -1.848689
C                    0    0.628105  2.603898  4.253126
H                    0    -0.604945  2.808724  2.498427
C                    0    2.868016  1.854753  3.853820
H                    0    3.366413  1.495329  1.790671
C                    0    -5.648294  0.004941  -1.837437
H                    0    -3.944722  1.076938  -2.563480
C                    0    -5.201086  -1.678069  -0.194645
H                    0    -3.162874  -1.915268  0.384290
C                    0    -3.296645  4.701725  -0.018899
H                    0    -4.133501  4.220091  1.892892
H                    0    -2.325684  4.894451  -1.918323
C                    0    1.881021  2.250994  4.748320
H                    0    -0.142158  2.927017  4.939013
H                    0    3.847491  1.583731  4.221189
C                    0    -6.102994  -0.987513  -0.985817
H                    0    -6.347423  0.551994  -2.452025
H                    0    -5.550444  -2.447791  0.478131
H                    0    -3.725588  5.693076  -0.044482
C                    0    2.164211  2.325549  6.217963
H                    0    -7.156370  -1.218994  -0.934729
H                    0    2.984876  1.666297  6.489541
H                    0    2.443629  3.343699  6.489736
H                    0    1.284477  2.055258  6.797634
P                    0    1.469721  -1.747736  0.625188
C                    0    3.007208  -1.516299  1.570082
C                    0    0.181804  -1.914004  1.902284
C                    0    1.698609  -3.477717  0.137411
C                    0    4.059388  -0.920181  0.880686
C                    0    3.181355  -1.916326  2.890117
C                    0    0.081071  -0.937738  2.889833
C                    0    -0.818139  -2.877694  1.793939
C                    0    2.412414  -4.548046  0.602411
O                    0    1.041289  -3.823430  -0.999015
C                    0    5.276295  -0.722523  1.507669
H                    0    3.896380  -0.593203  -0.141895
C                    0    4.398224  -1.708023  3.514830
H                    0    2.366532  -2.384078  3.424764
C                    0    -0.998428  -0.927794  3.752679
H                    0    0.852512  -0.187315  2.970506
C                    0    -1.892606  -2.870640  2.666755
H                    0    -0.747410  -3.646749  1.034770
C                    0    2.165933  -5.609535  -0.298281
H                    0    3.032025  -4.568648  1.475283
C                    0    1.328347  -5.110636  -1.248120
C                    0    5.443789  -1.113048  2.826979
H                    0    6.091749  -0.257854  0.973193
H                    0    4.532663  -2.012843  4.542748
C                    0    -1.989398  -1.891003  3.641460
H                    0    -1.067861  -0.161939  4.511218
H                    0    -2.659329  -3.628117  2.583480
H                    0    2.560819  -6.603311  -0.245127
H                    0    0.883388  -5.557468  -2.115734
H                    0    6.390838  -0.952359  3.321138
H                    0    -2.835502  -1.879797  4.312442
C                    0    1.009800  1.094445  -3.688109
O                    0    0.309858  1.045450  -2.495651
C                    0    0.294832  0.144338  -4.700235
H                    0    0.891431  -0.016482  -5.592690
H                    0    0.122486  -0.818775  -4.214232
H                    0    -0.668487  0.568725  -4.973340
C                    0    0.924083  2.540382  -4.222818
C                    0    0.899250  2.834205  -5.581154
C                    0    0.901898  3.589397  -3.314102
C                    0    0.843214  4.146754  -6.014701
H                    0    0.935763  2.046787  -6.317614
C                    0    0.837953  4.901779  -3.748705
H                    0    0.925178  3.376069  -2.257104
C                    0    0.808928  5.186738  -5.101824
H                    0    0.828352  4.356400  -7.075066
H                    0    0.815317  5.699194  -3.019916
H                    0    0.762836  6.210445  -5.445690
C                    0    2.364849  0.751321  -3.511469
H                    0    2.698957  1.227288  -2.564460
C                    0    3.297600  1.217179  -4.610642
C                    0    3.873164  2.480971  -4.547517
C                    0    3.572108  0.411121  -5.707316
C                    0    4.674925  2.948502  -5.571501
H                    0    3.683868  3.111670  -3.691807
C                    0    4.377332  0.863200  -6.737732
H                    0    3.164065  -0.586566  -5.742603
C                    0    4.914546  2.136559  -6.667427
H                    0    5.110136  3.934341  -5.521815
H                    0    4.585456  0.234990  -7.590189
Cl                    0    5.909370  2.716972  -7.959500
N                    0    2.555967  -0.681592  -3.372654
N                    0    1.967540  -1.225323  -2.407814
H                    0    2.141134  -2.244617  -2.441696

eps=3.06095
epsinf=1.36375
HBondAcidity=0.00
HBondBasicity=0.205
SurfaceTensionAtInterface=24.855
CarbonAromaticity=0.000
ElectronegativeHalogenicity=0.000


