%mem=8GB
%nprocshared=8
# opt freq 6-31G(d) scrf=(smd,solvent=generic,read) nosymm
em=gd3bj pbe1pbe

Xu8

0 1
 O                  0.34991982    8.19020752    0.24537516
 C                 -5.12592652    7.74812391    2.72770073
 H                 -5.89338629    8.52262703    2.77591165
 H                 -4.60597264    7.55247463    3.66322510
 C                 -4.40409930    7.60825726    1.53111957
 H                 -4.96675446    7.56071897    0.60078402
 C                 -0.69190207    8.03074090    1.11645136
 C                 -2.07314635    8.06644759    0.48001709
 H                 -2.08555385    7.65421301   -0.53585987
 H                 -2.42716845    9.10442388    0.43443383
 C                 -2.94716764    7.25912661    1.43041957
 H                 -2.52025553    7.26625432    2.44177904
 H                 -3.02245930    6.21010267    1.11139650
 H                 -0.66504563    8.75138606    1.95212991
 H                 -0.47603267    7.03594916    1.54081308
 Na                 1.80679395    7.61560625    1.38166821

eps=3.06095
epsinf=1.36375
HBondAcidity=0.00
HBondBasicity=0.205
SurfaceTensionAtInterface=24.855
CarbonAromaticity=0.000
ElectronegativeHalogenicity=0.000


