%mem=8GB
%nprocshared=8
%chk=Xu6-1-fromXu8-MItssp.chk
# genecp scrf=(smd,solvent=generic,read) nosymm em=gd3bj pbe1pbe

Xu6-1-fromXu8-MItssp

0 1
 Pd                 0.17680800    1.58662200    0.91063800
 P                  0.04987400   -0.73497100    0.59580400
 O                 -1.44030000    4.22726600   -2.25100500
 S                 -0.55214800    3.00688200   -2.21018100
 N                 -1.38707300    1.67865700   -2.82122500
 C                 -1.50743400    0.55063100   -1.87697500
 H                 -1.24942600    0.96874800   -0.89373400
 C                 -0.48285100   -0.52951900   -2.18872500
 C                  0.36001400   -1.10878600   -1.20288500
 C                 -2.93807900    0.06520600   -1.76115200
 C                 -2.29333700    1.87712000   -3.93594600
 C                 -1.59098600   -1.59918300    0.84478500
 C                  1.30575000   -1.53719400    1.72458200
 C                  0.61259800   -1.80666800   -3.94512100
 C                  1.48439400   -2.33360300   -3.00698300
 C                  1.36941100   -1.97624900   -1.66419400
 C                 -0.34512600   -0.89284800   -3.53044500
 C                  0.75432900    3.33923500   -3.50076900
 C                  1.69171600    4.31716400   -2.79024700
 C                  1.47401100    2.03787300   -3.80732600
 C                  0.14858200    3.98434900   -4.73605500
 C                 -3.80430300    0.78325700   -0.92860100
 C                 -5.12427200    0.38510100   -0.77158500
 C                 -5.62604900   -0.73710400   -1.44734500
 C                 -4.75818600   -1.43942300   -2.29126000
 C                 -3.43142900   -1.04767600   -2.44177600
 H                  0.68862600   -2.09180400   -4.99065500
 H                 -0.99798300   -0.43154000   -4.26445100
 H                  2.14538000    3.86441900   -1.90037800
 H                  1.16348100    5.22789400   -2.48862000
 H                  2.50229600    4.60293500   -3.47104400
 H                  2.36903600    2.25103100   -4.40549700
 H                  0.84083500    1.34700400   -4.36916900
 H                  1.79660300    1.52747600   -2.89168600
 H                  0.94873400    4.40896200   -5.35454300
 H                 -0.53214900    4.79286900   -4.44969100
 H                 -0.40049300    3.26209000   -5.34707400
 H                 -3.40761000    1.61843900   -0.35398000
 H                 -2.77725000   -1.62427200   -3.08887400
 H                 -5.76734400    0.92620500   -0.08214400
 H                 -5.12642200   -2.29980900   -2.84372700
 H                 -2.51297600    2.94574400   -4.02756500
 H                 -1.87550500    1.51537300   -4.88503400
 H                 -3.24010100    1.36260300   -3.75254000
 C                  1.28205900   -0.80277400    3.07583000
 C                  1.24880200   -3.05253400    1.94290600
 H                  2.26435000   -1.28955500    1.25712300
 C                  2.44104400   -1.26511100    3.95512300
 H                  0.33466400   -0.99505200    3.59602600
 H                  1.33667500    0.27891000    2.90877300
 C                  2.39632300   -3.51280300    2.84457300
 H                  0.30109100   -3.32737000    2.42031600
 H                  1.29992000   -3.57752300    0.98717400
 C                  2.40259300   -2.77327900    4.17784400
 H                  2.41194200   -0.73187400    4.91428800
 H                  3.38899900   -0.99402500    3.46736000
 H                  2.31991200   -4.59592600    3.00540400
 H                  3.35025500   -3.33922600    2.33163700
 H                  3.25831200   -3.09283400    4.78610600
 H                  1.49537800   -3.03010200    4.74565800
 C                 -7.02194200   -1.18107200   -1.25315000
 C                 -7.33879800   -2.54527900   -1.19953600
 C                 -8.05887300   -0.24945200   -1.11120800
 C                 -8.65208100   -2.96452600   -1.01435000
 H                 -6.54334800   -3.28205500   -1.27776000
 C                 -9.37208500   -0.66864000   -0.92545000
 H                 -7.83434400    0.81221600   -1.17106500
 C                 -9.67454100   -2.02791900   -0.87730300
 H                 -8.87610800   -4.02707000   -0.96758700
 H                -10.16342100    0.06973400   -0.82593800
 H                -10.70053900   -2.35529600   -0.73244900
 O                  2.26503600   -2.53265200   -0.79420100
 C                  3.59151400   -2.01346400   -0.91089500
 H                  3.90075900   -2.03612500   -1.96570000
 H                  3.60666500   -0.96717400   -0.58298100
 C                  4.51261100   -2.84247400   -0.06829900
 C                  5.44817300   -2.22279300    0.75974400
 C                  4.44503400   -4.23754200   -0.10297300
 C                  6.30838600   -2.98678200    1.54560700
 H                  5.49621000   -1.13859300    0.79951200
 C                  5.29760100   -5.00054500    0.68839300
 H                  3.70501600   -4.72072900   -0.73526700
 C                  6.23185100   -4.37670200    1.51538100
 H                  7.02969000   -2.48992200    2.18913000
 H                  5.23117700   -6.08518700    0.66412600
 H                  6.89460600   -4.97423800    2.13585800
 C                 -1.71241600   -2.96799100    0.16301500
 C                 -2.01538800   -1.68257400    2.31301400
 H                 -2.30224500   -0.92165300    0.35538900
 C                 -3.12592900   -3.53063100    0.31771000
 H                 -0.99111900   -3.66794000    0.60120300
 H                 -1.46460900   -2.88363800   -0.90043900
 C                 -3.44034200   -2.22013300    2.42965300
 H                 -1.34523900   -2.34759600    2.86925400
 H                 -1.94420400   -0.69889400    2.78156400
 C                 -3.56269300   -3.59286100    1.77779800
 H                 -3.17565300   -4.52567400   -0.14343600
 H                 -3.82350300   -2.88796500   -0.23570100
 H                 -3.73334800   -2.26452000    3.48652700
 H                 -4.13373900   -1.52465700    1.93549100
 H                 -4.59446500   -3.95947600    1.84947700
 H                 -2.93094900   -4.31103700    2.32171800
 C                  2.06324000    1.34835100    0.35073500
 H                  2.21090600    1.08668500   -0.70403500
 C                  3.15422600    1.53500000    1.11555600
 H                  3.02398300    1.76977800    2.17433700
 C                  4.55974200    1.41646600    0.70398700
 C                  5.56346300    1.36595300    1.68761600
 C                  6.90008400    1.20032700    1.36121200
 C                  7.28754300    1.08073900    0.02211100
 C                  6.31186800    1.15012100   -0.97735100
 C                  4.97466400    1.32209300   -0.63123700
 H                  5.27885200    1.44548000    2.73487800
 H                  7.66501100    1.15545400    2.13128200
 H                  6.58208900    1.07868500   -2.02558700
 H                  4.23726400    1.38821500   -1.42757200
 O                  8.61240000    0.91045100   -0.20414100
 C                  9.03129200    0.75872900   -1.54217000
 H                  8.56690400   -0.11747300   -2.01355300
 H                  8.80823000    1.65190600   -2.14062900
 H                 10.11293300    0.61449700   -1.50625800
 O                 -1.84808500    2.21193100    1.32430400
 C                  0.58921900    3.72366600    1.08968100
 H                  1.18365700    3.86098500    1.99409400
 H                  1.12399000    3.87194200    0.15521500
 C                 -0.77276700    4.03252600    1.13500600
 H                 -1.29625400    4.17775400    0.19261500
 C                 -2.45358000    2.39778400    2.57254600
 C                 -3.77902200    1.62011500    2.58991600
 C                 -4.46603300    1.59927500    3.95405100
 C                 -3.52998400    1.07550800    5.03957800
 C                 -2.24201400    1.89209300    5.08791900
 C                 -1.55400100    1.91661100    3.72457900
 H                 -4.79805200    2.61254900    4.22244200
 H                 -4.44394400    2.05249400    1.83111500
 H                 -3.57020000    0.59386000    2.26964000
 H                 -4.03054200    1.08951700    6.01627100
 H                 -3.28234200    0.02466200    4.82699200
 H                 -2.47502700    2.91708800    5.41052900
 H                 -1.55633600    1.48129600    5.84065700
 H                 -0.64447100    2.52875700    3.76098500
 H                 -1.21629700    0.90588500    3.46950200
 H                 -5.37166000    0.98099900    3.90104300
 C                 -2.72695100    3.90676800    2.67181800
 H                 -3.11261200    4.22145400    3.64793100
 H                 -3.48335400    4.16066700    1.91800900
 C                 -1.42389100    4.61761500    2.34561900
 H                 -0.72998200    4.58902100    3.19331700
 H                 -1.60953200    5.67795000    2.12170700
 H                  2.26122200   -3.03830300   -3.29031100

C H O N P S 0
def2tzvp
****
Pd 0
SDD
****

Pd 0
SDD

eps=3.06095
epsinf=1.36375
HBondAcidity=0.00
HBondBasicity=0.205
SurfaceTensionAtInterface=24.855
CarbonAromaticity=0.000
ElectronegativeHalogenicity=0.000



