%nprocshared=4
%mem=8GB
#p opt=(modredundant,nomicro) nosymm external='./xtb.sh' ugbs

Sub-Ph-001

0 1
C                    0    2.3321285629  1.6986711492  0.1625620142
C                    0    1.9798974644  1.3716287397  -1.1427007482
C                    0    0.7552240127  0.7839283739  -1.3920499794
C                    0    -0.1369037247  0.5518745693  -0.3500424617
C                    0    0.1311184368  1.1015618147  0.9015814302
C                    0    1.3638519077  1.6668072890  1.1607759572
H                    0    2.7017143005  1.4909851707  -1.9380978192
H                    0    0.5176300191  0.4361056666  -2.3858272732
H                    0    -0.5914000891  0.9918653706  1.6979546768
H                    0    1.6196622383  2.0085928346  2.1530272283
C                    0    -1.1741689906  -0.4912301616  -0.4510289471
C                    0    -2.5520832125  -0.2319072680  0.0004237676
C                    0    -3.2774261477  0.8602188816  -0.4916211332
C                    0    -3.1368518999  -1.0721720802  0.9446954864
C                    0    -4.5638064444  1.0775363363  -0.0165982621
C                    0    -4.4194021538  -0.8418337694  1.4066813738
H                    0    -2.5666939217  -1.9047103699  1.3313605971
C                    0    -5.1356366324  0.2404638720  0.9254836945
H                    0    -5.1293132120  1.9179412203  -0.3945854845
H                    0    -4.8558838093  -1.5016767146  2.1424263011
H                    0    -6.1374874101  0.4320679582  1.2816761323
C                    0    -0.7576826347  -1.7205859186  -0.7827524030
H                    0    -1.4268158848  -2.5782507505  -0.7548039420
C                    0    -2.6946271091  1.7691547012  -1.5306587330
H                    0    -1.9046734095  2.3844304072  -1.1003271880
H                    0    -2.2592586278  1.1908508133  -2.3436151477
H                    0    -3.4598207739  2.4264414155  -1.9369705444
O                    0    3.6459129701  1.9630003182  0.5123250917
O                    0    0.5162628747  -1.9868352469  -1.2207827929
C                    0    4.5006643814  0.8274169559  0.3483614657
H                    0    4.7085817315  0.6630490789  -0.7168135594
H                    0    5.4272980425  1.1364445032  0.8380216770
C                    0    1.2636519652  -2.9191709278  -0.4486432970
H                    0    0.5865476934  -3.6456009763  0.0185804178
H                    0    1.9106573741  -3.4434540971  -1.1588732275
C                    0    2.1163755043  -2.2235101268  0.6224003977
H                    0    1.4662426391  -1.5661010520  1.2047397560
H                    0    2.5265640098  -2.9823895608  1.2910634927
C                    0    3.2413211584  -1.3982459335  -0.0086929198
H                    0    3.9734368387  -2.0723993044  -0.4587571694
H                    0    2.7973853281  -0.8136503097  -0.8127927390
C                    0    3.9531939956  -0.4645628411  0.9855025343
H                    0    3.2623756663  -0.1767587697  1.7805683159
H                    0    4.7804139636  -0.9992253269  1.4540951349

D 22 11 4 3 S 20 9.000000

