%mem=8GB
%nprocshared=8
%chk=XuPhOtBu-1-fromXu8-MItsmod.chk
# opt=(calcfc,modredundant,maxstep=10) freq genecp
scrf=(smd,solvent=generic,read) nosymm em=gd3bj pbe1pbe

XuPhOtBu-1-fromXu8-MItsmod

0 1
 Pd                 0.18161700    1.60112900    0.91450400
 P                  0.05198000   -0.72088000    0.61964400
 O                 -1.44567700    4.20275300   -2.26583600
 S                 -0.57164000    2.97252100   -2.20792700
 N                 -1.41860500    1.64850700   -2.80425000
 C                 -1.53837200    0.52186200   -1.85670800
 H                 -1.28649400    0.94620500   -0.87490100
 C                 -0.51107000   -0.55607200   -2.15927600
 C                  0.35637700   -1.10962700   -1.17755900
 C                 -2.97222500    0.04296100   -1.74664600
 C                 -2.30974000    1.83395500   -3.93225300
 C                 -1.59222700   -1.57868900    0.87554200
 C                  1.30548300   -1.52664200    1.74575100
 C                  0.58867000   -1.86044400   -3.90511400
 C                  1.47854000   -2.36602000   -2.96791800
 C                  1.37463900   -1.96580800   -1.61888700
 C                 -0.37292300   -0.94858500   -3.48749100
 C                  0.74251400    3.27798300   -3.49843600
 C                  1.69370300    4.24713800   -2.79431300
 C                  1.44415000    1.96456900   -3.79584300
 C                  0.14709700    3.92326200   -4.73873500
 C                 -3.84349700    0.77782400   -0.93433100
 C                 -5.16833500    0.39235000   -0.78791200
 C                 -5.67116200   -0.73403800   -1.45601200
 C                 -4.79749500   -1.45564700   -2.27736300
 C                 -3.46554800   -1.07674000   -2.41559600
 H                  0.64546200   -2.15018800   -4.94857600
 H                 -1.03096800   -0.51155500   -4.23216900
 H                  2.13958400    3.79448200   -1.90048400
 H                  1.17928500    5.16825500   -2.50033900
 H                  2.50918200    4.51550700   -3.47643200
 H                  2.34123000    2.16137300   -4.39662400
 H                  0.80061900    1.27833600   -4.35162400
 H                  1.76033400    1.45614600   -2.87690900
 H                  0.95315300    4.33527500   -5.35818300
 H                 -0.52500400    4.74089800   -4.45789900
 H                 -0.40945100    3.20413500   -5.34673400
 H                 -3.44812900    1.62027600   -0.36989000
 H                 -2.80725600   -1.66848500   -3.04453500
 H                 -5.81590000    0.94852500   -0.11478100
 H                 -5.16530700   -2.32063800   -2.82297800
 H                 -2.52111100    2.90233900   -4.04355200
 H                 -1.88426500    1.45428800   -4.87110700
 H                 -3.26205800    1.32873300   -3.75114200
 C                  1.28721300   -0.80688200    3.10451500
 C                  1.26106200   -3.04455500    1.94868900
 H                  2.26175700   -1.26874600    1.28029100
 C                  2.46748300   -1.26403800    3.95854700
 H                  0.35096400   -1.01970100    3.63657100
 H                  1.32418900    0.27748700    2.94972200
 C                  2.43223000   -3.50214800    2.82048100
 H                  0.32570100   -3.33032200    2.44411400
 H                  1.29674000   -3.56072000    0.98766800
 C                  2.45697700   -2.77594900    4.16141500
 H                  2.44710500   -0.74504900    4.92574600
 H                  3.40251000   -0.97118400    3.45859600
 H                  2.37100600   -4.58745700    2.97267700
 H                  3.37284900   -3.31335100    2.28752000
 H                  3.32991400   -3.08913600    4.74814900
 H                  1.56599700   -3.05370600    4.74488300
 C                 -7.07527800   -1.15954100   -1.28033600
 C                 -7.41017000   -2.51901600   -1.21708200
 C                 -8.10323100   -0.21389500   -1.16835700
 C                 -8.73180100   -2.92007200   -1.05204000
 H                 -6.62267700   -3.26634900   -1.27153100
 C                 -9.42477300   -0.61480700   -1.00235300
 H                 -7.86465400    0.84421100   -1.23646700
 C                 -9.74500900   -1.96962800   -0.94471600
 H                 -8.96975900   -3.97922100   -0.99747500
 H                -10.20853800    0.13433100   -0.92594700
 H                -10.77750600   -2.28279200   -0.81544200
 O                  2.28577900   -2.49758200   -0.75758800
 C                  3.59168000   -1.91918500   -0.85505600
 H                  3.87638700   -1.84212200   -1.91181000
 H                  3.57436400   -0.90927500   -0.43019500
 C                  4.55526600   -2.79176600   -0.11095500
 C                  5.51241800   -2.22536300    0.73055500
 C                  4.50419200   -4.18013500   -0.25822000
 C                  6.41342100   -3.03677400    1.41697800
 H                  5.54613300   -1.14711100    0.85744800
 C                  5.39658100   -4.99057100    0.43609300
 H                  3.74927200   -4.61418000   -0.90759600
 C                  6.35474600   -4.42082400    1.27493700
 H                  7.15320800   -2.58266000    2.07120500
 H                  5.34499900   -6.07073400    0.32476600
 H                  7.05000500   -5.05567600    1.81812200
 C                 -1.72204900   -2.94110500    0.18231600
 C                 -1.99999500   -1.68004700    2.34770700
 H                 -2.30667800   -0.89292800    0.40188100
 C                 -3.13265900   -3.50762000    0.34760200
 H                 -0.99448300   -3.64370800    0.60597500
 H                 -1.48642900   -2.84679500   -0.88282800
 C                 -3.42351900   -2.21925900    2.47515800
 H                 -1.32396000   -2.35335000    2.88626700
 H                 -1.92268500   -0.70351600    2.83003900
 C                 -3.55221400   -3.58577200    1.81176100
 H                 -3.18580000   -4.49792900   -0.12331700
 H                 -3.83782500   -2.86094800   -0.19124300
 H                 -3.70415900   -2.27379500    3.53490500
 H                 -4.12319300   -1.51989200    1.99550400
 H                 -4.58258400   -3.95453200    1.89217700
 H                 -2.91304000   -4.30832800    2.34098000
 C                  2.07360300    1.36470600    0.37484200
 H                  2.23228500    1.10168800   -0.67805700
 C                  3.15644900    1.55287200    1.15115900
 H                  3.01417100    1.78784200    2.20834000
 C                  4.56667700    1.43235900    0.75595000
 C                  5.55870700    1.37978100    1.75120600
 C                  6.89868600    1.21046300    1.44060200
 C                  7.30133500    1.08849000    0.10632300
 C                  6.33774300    1.16080000   -0.90455800
 C                  4.99719000    1.33657400   -0.57425800
 H                  5.26213500    1.46063600    2.79504900
 H                  7.65421800    1.16302400    2.21973600
 H                  6.61999000    1.08670100   -1.94942200
 H                  4.26907500    1.40268000   -1.37901800
 O                  8.62817500    0.91255000   -0.10424700
 C                  9.06025300    0.74648100   -1.43629100
 H                  8.59441100   -0.13038900   -1.90496800
 H                  8.85030400    1.63611500   -2.04473900
 H                 10.14040700    0.59490100   -1.38761300
 O                 -1.84854700    2.22000100    1.30907300
 C                  0.58029700    3.74151200    1.08087000
 H                  1.16821800    3.88936000    1.98790100
 H                  1.12008400    3.88822900    0.14891600
 C                 -0.78404700    4.04347900    1.11516500
 H                 -1.30188500    4.17962900    0.16830900
 C                 -2.45805100    2.40853200    2.55518500
 C                 -3.77551800    1.61818900    2.57581800
 C                 -4.46514500    1.60021100    3.93870800
 C                 -3.52653800    1.09403600    5.03037500
 C                 -2.24582000    1.92218100    5.07419600
 C                 -1.55607300    1.94295100    3.71169100
 H                 -4.80813300    2.61201600    4.19877000
 H                 -4.44354600    2.03794900    1.81279500
 H                 -3.55486400    0.59201400    2.26326700
 H                 -4.02909700    1.11196400    6.00598400
 H                 -3.26937600    0.04364800    4.82733500
 H                 -2.48798500    2.94750900    5.38893100
 H                 -1.55761900    1.52293200    5.83083300
 H                 -0.65160500    2.56259600    3.74536600
 H                 -1.20971500    0.93347900    3.46316400
 H                 -5.36435400    0.97241100    3.88821100
 C                 -2.74469600    3.91562200    2.64326700
 H                 -3.13675400    4.23377400    3.61572300
 H                 -3.50025500    4.15784900    1.88480000
 C                 -1.44604300    4.63475700    2.31709200
 H                 -0.75631800    4.61961800    3.16852600
 H                 -1.63941000    5.69137800    2.08258900
 O                  2.52901556   -3.29358429   -3.25256795
 C                  2.31334747   -3.87884612   -4.53936858
 C                  3.36314224   -4.97832187   -4.78570981
 H                  3.22354064   -5.39234762   -5.76243601
 H                  4.34419344   -4.55731367   -4.71366367
 H                  3.25109518   -5.74922550   -4.05218881
 C                  0.90281122   -4.49453156   -4.59339575
 H                  0.55960875   -4.68767847   -3.59850564
 H                  0.23405668   -3.81225377   -5.07523014
 H                  0.93472076   -5.41144373   -5.14398984
 C                  2.44183104   -2.79396665   -5.62478486
 H                  1.47581307   -2.58170030   -6.03301553
 H                  2.84998464   -1.90406817   -5.19305424
 H                  3.08896644   -3.14235192   -6.40243740

B 1 122 F
B 1 123 F
B 122 126 F
B 123 126 F

C H O N P S 0
6-31G(d)
****
Pd 0
SDD
****

Pd 0
SDD

eps=3.06095
epsinf=1.36375
HBondAcidity=0.00
HBondBasicity=0.205
SurfaceTensionAtInterface=24.855
CarbonAromaticity=0.000
ElectronegativeHalogenicity=0.000




