%nprocshared=4
%mem=8GB
#p opt freq=vcd nosymm b3lyp/6-31G*

product

0 1
 C                  2.73124200    4.11046100    0.96354600
 H                  2.80508200    4.19603000   -0.11129600
 C                  3.61163600    3.38724800    1.65265400
 H                  3.50095100    3.33225200    2.72931100
 C                  4.74772900    2.64813500    1.12457100
 C                  5.60431800    1.99321400    2.01568500
 C                  6.69397400    1.28107800    1.57139500
 C                  6.97238700    1.19302700    0.20632700
 C                  6.12894000    1.83593500   -0.69364100
 C                  5.03739800    2.54910400   -0.23474300
 H                  5.40608200    2.04948200    3.07649400
 H                  7.35290600    0.77818500    2.26171600
 H                  6.31157000    1.78794400   -1.75608400
 H                  4.40024000    3.03460000   -0.95779300
 O                  8.07349200    0.46524100   -0.13224300
 C                  8.40552400    0.34124600   -1.49282500
 H                  7.61125300   -0.15814400   -2.05752500
 H                  8.61644100    1.31533200   -1.94646800
 H                  9.30578600   -0.27072200   -1.52231200
 O                 -0.83825300    4.81136000    1.87602800
 C                  1.57970300    4.82731400    1.58510000
 H                  1.64351300    4.78224900    2.67321400
 H(Iso=2)           1.58252400    5.87929100    1.28530000
 C                  0.23564400    4.20623400    1.16289900
 H                  0.24262700    3.14428500    1.44318600
 C                 -1.63554100    5.55151000    0.97757800
 C                 -1.53349300    4.80979000   -0.35321500
 H                 -1.78833900    5.43642300   -1.20475300
 H                 -2.18622300    3.93647000   -0.34175800
 C                 -0.06625300    4.38290000   -0.33724100
 H                  0.55671500    5.17699800   -0.75165400
 H                  0.11395800    3.46851500   -0.89795900
 H                 -1.25059000    6.57809900    0.87773400
 H                 -2.64634600    5.59099600    1.38634900

