%nprocshared=4
%mem=8GB
%chk=product-cf-SR-00005.chk
#p opt freq=vcd nosymm b3lyp/6-31G* 

product-cf-SR-00005

0 1
C                    0    1.328792  -0.712271  -0.779352
H                    0    1.192902  0.282439  -1.200868
C                    0    0.290176  -1.370371  -0.240539
H                    0    0.478044  -2.359309  0.182079
C                    0    -1.106674  -0.923345  -0.141722
C                    0    -2.031229  -1.708692  0.574626
C                    0    -3.361266  -1.336048  0.707139
C                    0    -3.819825  -0.150613  0.116973
C                    0    -2.922860  0.646892  -0.606691
C                    0    -1.590503  0.256231  -0.729521
H                    0    -1.692219  -2.632193  1.038920
H                    0    -4.066308  -1.947193  1.262135
H                    0    -3.250674  1.565649  -1.080125
H                    0    -0.918667  0.886625  -1.305061
O                    0    -5.143117  0.134075  0.299288
C                    0    -5.660070  1.320874  -0.279396
H                    0    -5.162981  2.215375  0.119274
H                    0    -5.562869  1.313591  -1.373303
H                    0    -6.718235  1.348245  -0.012496
O                    0    3.774844  0.934822  -0.874236
C                    0    2.727644  -1.252707  -0.866914
H(Iso=2)                    0    2.786339  -2.248309  -0.407132
H                    0    3.005544  -1.374907  -1.924336
C                    0    3.793253  -0.348925  -0.224375
H                    0    4.779503  -0.810364  -0.399234
C                    0    3.922691  1.985122  0.088404
C                    0    4.308210  1.310232  1.411267
H                    0    3.979415  1.877901  2.287551
H                    0    5.396216  1.188881  1.476276
C                    0    3.624259  -0.056905  1.272860
H                    0    2.559174  0.015013  1.522906
H                    0    4.070882  -0.833670  1.901897
H                    0    2.970204  2.527960  0.182691
H                    0    4.680397  2.691079  -0.272202

