%nprocshared=4
%mem=8GB
%chk=product-cf-SS-00010.chk
#p opt freq=vcd nosymm b3lyp/6-31G* 

product-cf-SS-00010

0 1
C                    0    1.127545  0.949836  -0.456300
H                    0    0.945368  1.672306  0.340334
C                    0    0.122117  0.190402  -0.915603
H                    0    0.352481  -0.534582  -1.697679
C                    0    -1.282803  0.200240  -0.486850
C                    0    -1.810583  1.121801  0.442005
C                    0    -3.143238  1.087514  0.817824
C                    0    -4.010551  0.125118  0.275072
C                    0    -3.515555  -0.797207  -0.651491
C                    0    -2.169129  -0.746969  -1.018653
H                    0    -1.166826  1.882122  0.874771
H                    0    -3.544353  1.799928  1.532331
H                    0    -4.158950  -1.551393  -1.090582
H                    0    -1.796556  -1.472006  -1.738946
O                    0    -5.303712  0.178781  0.711745
C                    0    -6.222650  -0.770623  0.197557
H                    0    -6.333064  -0.678322  -0.891310
H                    0    -5.921692  -1.798291  0.441627
H                    0    -7.179248  -0.552249  0.676114
O                    0    3.291936  -0.872752  0.549798
C                    0    2.542798  0.879026  -0.955790
H(Iso=2)                    0    2.616657  0.170478  -1.790324
H                    0    2.850214  1.865809  -1.338165
C                    0    3.558463  0.470533  0.119514
H                    0    3.447555  1.142890  0.987715
C                    0    4.511185  -1.610120  0.677765
C                    0    5.651365  -0.589576  0.564067
H                    0    6.571682  -1.024052  0.160983
H                    0    5.882183  -0.161041  1.546688
C                    0    5.022737  0.473979  -0.345957
H                    0    5.083492  0.164282  -1.397747
H                    0    5.489916  1.459832  -0.256904
H                    0    4.569678  -2.360672  -0.125353
H                    0    4.504482  -2.142963  1.636181

