%nprocshared=4
%mem=8GB
%chk=product-cf-SR-00021.chk
#p opt freq=vcd nosymm b3lyp/6-31G* 

product-cf-SR-00021

0 1
C                    0    -1.381618  -0.744957  -1.157635
H                    0    -1.105275  -0.031799  -1.933838
C                    0    -0.469056  -1.132705  -0.251979
H                    0    -0.791855  -1.838896  0.513409
C                    0    0.936584  -0.717913  -0.149024
C                    0    1.723938  -1.222103  0.905159
C                    0    3.056671  -0.867945  1.058759
C                    0    3.657703  0.013259  0.149858
C                    0    2.899019  0.528023  -0.910297
C                    0    1.561298  0.161760  -1.047701
H                    0    1.272570  -1.906913  1.619491
H                    0    3.654738  -1.260924  1.875143
H                    0    3.338089  1.209434  -1.630346
H                    0    0.997871  0.573915  -1.880155
O                    0    4.971886  0.304879  0.380491
C                    0    5.628264  1.192991  -0.508877
H                    0    5.646020  0.799574  -1.534084
H                    0    5.155550  2.184320  -0.512783
H                    0    6.651905  1.283861  -0.140656
O                    0    -3.431379  -0.467475  1.072018
C                    0    -2.811218  -1.219667  -1.154737
H(Iso=2)                    0    -3.198940  -1.264328  -2.182042
H                    0    -2.865310  -2.238414  -0.752283
C                    0    -3.779409  -0.358506  -0.317786
H                    0    -4.790030  -0.779840  -0.443632
C                    0    -3.373848  0.827373  1.675771
C                    0    -4.139250  1.763144  0.734739
H                    0    -3.831180  2.809460  0.829161
H                    0    -5.216460  1.705918  0.932383
C                    0    -3.808254  1.147835  -0.632413
H                    0    -2.821227  1.488192  -0.965854
H                    0    -4.535240  1.395465  -1.412452
H                    0    -2.325050  1.144146  1.779721
H                    0    -3.813095  0.761086  2.677676

