%nprocshared=4
%mem=8GB
%chk=product-cf-SR-00001.chk
#p opt freq=vcd nosymm b3lyp/6-31G* 

product-cf-SR-00001

0 1
C                    0    -1.065807  -0.371383  0.713194
H                    0    -0.908124  0.671604  0.989642
C                    0    -0.030284  -1.110131  0.284082
H                    0    -0.229278  -2.148689  0.013899
C                    0    1.372098  -0.699526  0.128359
C                    0    2.304269  -1.622389  -0.385767
C                    0    3.641617  -1.294721  -0.556862
C                    0    4.100178  -0.015900  -0.212749
C                    0    3.194797  0.921645  0.302716
C                    0    1.855046  0.574618  0.466825
H                    0    1.965407  -2.619671  -0.657287
H                    0    4.352397  -2.012638  -0.954236
H                    0    3.521449  1.917533  0.580191
H                    0    1.176596  1.319480  0.873044
O                    0    5.430782  0.215378  -0.412873
C                    0    5.950293  1.489502  -0.069194
H                    0    5.479491  2.290287  -0.655017
H                    0    5.821771  1.703433  1.000278
H                    0    7.015842  1.451580  -0.303206
O                    0    -4.742103  -0.821617  0.008136
C                    0    -2.475718  -0.878867  0.834416
H(Iso=2)                    0    -2.502881  -1.963909  0.679142
H                    0    -2.866896  -0.690386  1.845153
C                    0    -3.444858  -0.227359  -0.163185
H                    0    -3.090461  -0.439162  -1.185346
C                    0    -5.767441  0.173061  -0.084153
C                    0    -5.081796  1.463278  -0.554655
H                    0    -5.582996  2.366643  -0.193027
H                    0    -5.056373  1.507138  -1.649959
C                    0    -3.662701  1.283504  0.002076
H                    0    -3.631919  1.553647  1.066355
H                    0    -2.909760  1.879848  -0.521898
H                    0    -6.232648  0.306182  0.904174
H                    0    -6.542603  -0.177015  -0.776679

