%nprocshared=4
%mem=8GB
%chk=product-cf-SR-00017.chk
#p opt freq=vcd nosymm b3lyp/6-31G* 

product-cf-SR-00017

0 1
C                    0    -1.359043  -0.799921  0.703176
H                    0    -1.312311  0.118543  1.285993
C                    0    -0.255362  -1.290651  0.117083
H                    0    -0.352449  -2.210356  -0.463211
C                    0    1.105740  -0.738246  0.157119
C                    0    1.461249  0.407199  0.900519
C                    0    2.757797  0.894030  0.902251
C                    0    3.760281  0.250309  0.157661
C                    0    3.436508  -0.889101  -0.584953
C                    0    2.123745  -1.365364  -0.574810
H                    0    0.709073  0.922617  1.490552
H                    0    3.026678  1.774949  1.477211
H                    0    4.187080  -1.410247  -1.168419
H                    0    1.885547  -2.252622  -1.157519
O                    0    5.003531  0.810589  0.228533
C                    0    6.055242  0.199436  -0.500122
H                    0    6.232978  -0.831430  -0.165620
H                    0    5.851027  0.196575  -1.579245
H                    0    6.945152  0.800356  -0.303609
O                    0    -3.912615  0.660756  0.908015
C                    0    -2.718488  -1.434682  0.631120
H(Iso=2)                    0    -2.687105  -2.348274  0.022317
H                    0    -3.034396  -1.736411  1.640686
C                    0    -3.813774  -0.508169  0.074594
H                    0    -4.773698  -1.047838  0.126174
C                    0    -4.035756  1.839696  0.104853
C                    0    -4.328795  1.361143  -1.322683
H                    0    -3.981629  2.065701  -2.085126
H                    0    -5.406519  1.214441  -1.463520
C                    0    -3.594067  0.013527  -1.352708
H                    0    -2.523651  0.161633  -1.537939
H                    0    -3.978745  -0.676169  -2.110899
H                    0    -3.095399  2.410087  0.145684
H                    0    -4.831416  2.467588  0.522837

