%nprocshared=4
%mem=8GB
%chk=product-cf-SS-00006.chk
#p opt freq=vcd nosymm b3lyp/6-31G* 

product-cf-SS-00006

0 1
C                    0    1.053261  -0.262083  -0.943789
H                    0    0.806643  -1.321116  -0.853955
C                    0    0.096133  0.662262  -0.766578
H                    0    0.382383  1.711029  -0.862188
C                    0    -1.324853  0.446300  -0.459953
C                    0    -2.164208  1.562949  -0.276630
C                    0    -3.513844  1.425392  0.014513
C                    0    -4.079271  0.148618  0.132988
C                    0    -3.267702  -0.980052  -0.045657
C                    0    -1.914154  -0.822194  -0.337922
H                    0    -1.741816  2.561353  -0.366169
H                    0    -4.152632  2.292068  0.153609
H                    0    -3.677911  -1.980228  0.037786
H                    0    -1.310420  -1.714688  -0.476234
O                    0    -5.413707  0.110543  0.419510
C                    0    -6.038312  -1.156929  0.541038
H                    0    -5.969765  -1.732435  -0.391703
H                    0    -5.603155  -1.745752  1.359578
H                    0    -7.087748  -0.953791  0.762447
O                    0    4.809172  -0.295000  -0.700481
C                    0    2.488031  0.045180  -1.266626
H(Iso=2)                    0    2.763963  -0.410947  -2.228665
H                    0    2.638064  1.126921  -1.373077
C                    0    3.470152  -0.489097  -0.215903
H                    0    3.298845  -1.572014  -0.087505
C                    0    5.667614  0.140348  0.359485
C                    0    4.859804  0.005055  1.657833
H                    0    5.159645  0.730143  2.421054
H                    0    4.980294  -0.999108  2.081842
C                    0    3.423857  0.201647  1.153777
H                    0    3.202847  1.269365  1.026073
H                    0    2.662631  -0.221361  1.815388
H                    0    5.962067  1.185442  0.180608
H                    0    6.577807  -0.471636  0.354444

