%nprocshared=4
%mem=8GB
%chk=product-cf-SS-00051.chk
#p opt freq=vcd nosymm b3lyp/6-31G* 

product-cf-SS-00051

0 1
C                    0    -1.451271  -0.991146  -0.985099
H                    0    -1.271240  -0.457929  -1.918135
C                    0    -0.451890  -1.144791  -0.101343
H                    0    -0.676559  -1.678461  0.822553
C                    0    0.934985  -0.675449  -0.216171
C                    0    1.434640  0.027606  -1.333059
C                    0    2.753097  0.447115  -1.393028
C                    0    3.633146  0.180030  -0.330943
C                    0    3.164900  -0.514632  0.788429
C                    0    1.832614  -0.930657  0.830500
H                    0    0.779293  0.248347  -2.170753
H                    0    3.133164  0.986734  -2.255158
H                    0    3.818497  -0.736538  1.624516
H                    0    1.480472  -1.470111  1.706917
O                    0    4.910013  0.636732  -0.490662
C                    0    5.842832  0.391858  0.549004
H                    0    5.532363  0.864691  1.490338
H                    0    5.986710  -0.683714  0.717856
H                    0    6.784450  0.833603  0.217553
O                    0    -3.348955  -0.249079  1.274612
C                    0    -2.851605  -1.495776  -0.756008
H(Iso=2)                    0    -3.308471  -1.794007  -1.710134
H                    0    -2.826590  -2.391658  -0.123958
C                    0    -3.799809  -0.491170  -0.068859
H                    0    -4.792346  -0.964940  -0.004208
C                    0    -3.265588  1.155528  1.525569
C                    0    -4.155172  1.819452  0.470535
H                    0    -3.882716  2.861660  0.275092
H                    0    -5.204941  1.794481  0.786810
C                    0    -3.930499  0.892458  -0.732798
H                    0    -2.999214  1.163775  -1.242819
H                    0    -4.741075  0.924215  -1.467746
H                    0    -2.222301  1.492742  1.429190
H                    0    -3.593309  1.340366  2.554738

