%nprocshared=4
%mem=8GB
%chk=product-cf-SR-00034.chk
#p opt freq=vcd nosymm b3lyp/6-31G* 

product-cf-SR-00034

0 1
C                    0    -1.099129  -0.290473  0.768643
H                    0    -1.013313  0.760362  1.046514
C                    0    -0.008959  -0.965763  0.371412
H                    0    -0.136785  -2.014988  0.099192
C                    0    1.368790  -0.470232  0.253310
C                    0    1.760540  0.841624  0.594671
C                    0    3.073604  1.261552  0.462679
C                    0    4.056926  0.381062  -0.018654
C                    0    3.696844  -0.925455  -0.362415
C                    0    2.368120  -1.331080  -0.222168
H                    0    1.024547  1.544816  0.973729
H                    0    3.370276  2.271659  0.728223
H                    0    4.431571  -1.629743  -0.735916
H                    0    2.101834  -2.350241  -0.493628
O                    0    5.318375  0.894549  -0.110019
C                    0    6.352415  0.048845  -0.586675
H                    0    6.490096  -0.826031  0.062612
H                    0    6.155154  -0.292015  -1.611847
H                    0    7.262062  0.652154  -0.576228
O                    0    -4.715517  -0.963396  -0.053918
C                    0    -2.479018  -0.881928  0.847740
H(Iso=2)                    0    -2.436067  -1.966654  0.693805
H                    0    -2.912486  -0.717076  1.845244
C                    0    -3.452612  -0.289786  -0.181789
H                    0    -3.051105  -0.476689  -1.191450
C                    0    -5.796786  -0.035923  -0.197940
C                    0    -5.173649  1.295641  -0.640004
H                    0    -5.745242  2.165049  -0.300168
H                    0    -5.105416  1.343708  -1.733290
C                    0    -3.770569  1.204043  -0.024773
H                    0    -3.800651  1.471743  1.040078
H                    0    -3.035388  1.848026  -0.516652
H                    0    -6.315046  0.066814  0.767204
H                    0    -6.515038  -0.434214  -0.925037

