%nprocshared=4
%mem=8GB
%chk=product-cf-SR-00004.chk
#p opt freq=vcd nosymm b3lyp/6-31G* 

product-cf-SR-00004

0 1
C                    0    1.080473  -0.456445  0.907516
H                    0    0.838511  -1.469484  0.583024
C                    0    0.124125  0.482852  0.945722
H                    0    0.409772  1.481168  1.280649
C                    0    -1.295916  0.341804  0.595009
C                    0    -2.166781  1.428361  0.809054
C                    0    -3.518416  1.355704  0.503685
C                    0    -4.053200  0.178630  -0.036632
C                    0    -3.208914  -0.916210  -0.265067
C                    0    -1.853817  -0.824720  0.048445
H                    0    -1.768033  2.350078  1.226946
H                    0    -4.181587  2.198405  0.673121
H                    0    -3.593000  -1.837462  -0.688545
H                    0    -1.220592  -1.685229  -0.147793
O                    0    -5.392430  0.199655  -0.306314
C                    0    -5.983076  -0.963205  -0.862082
H                    0    -5.542556  -1.215036  -1.836109
H                    0    -5.887081  -1.827146  -0.190683
H                    0    -7.040666  -0.727711  -0.995782
O                    0    3.290779  0.374549  -0.923642
C                    0    2.514399  -0.224857  1.292259
H(Iso=2)                    0    2.657335  0.813166  1.617645
H                    0    2.778532  -0.872650  2.143955
C                    0    3.512723  -0.526733  0.168687
H                    0    3.349482  -1.560905  -0.183927
C                    0    4.536433  0.761764  -1.514177
C                    0    5.632565  -0.057787  -0.813878
H                    0    6.583073  0.480332  -0.743678
H                    0    5.816506  -0.994554  -1.353317
C                    0    4.988973  -0.348137  0.548491
H                    0    5.100502  0.513470  1.219793
H                    0    5.405538  -1.226625  1.051401
H                    0    4.682383  1.840867  -1.360070
H                    0    4.495807  0.579368  -2.595326

