%nprocshared=4
%mem=8GB
%chk=product-cf-SS-00014.chk
#p opt freq=vcd nosymm b3lyp/6-31G* 

product-cf-SS-00014

0 1
C                    0    -1.083906  0.494539  0.553873
H                    0    -0.985230  -0.560298  0.803940
C                    0    -0.010959  1.214716  0.192369
H                    0    -0.163039  2.268361  -0.050047
C                    0    1.382841  0.761481  0.081557
C                    0    2.379878  1.686071  -0.286547
C                    0    3.712257  1.317660  -0.408681
C                    0    4.098704  -0.006796  -0.164010
C                    0    3.127264  -0.947935  0.202946
C                    0    1.793922  -0.559615  0.320605
H                    0    2.097307  2.718556  -0.480211
H                    0    4.473533  2.037718  -0.692584
H                    0    3.396454  -1.980182  0.396886
H                    0    1.061269  -1.309938  0.603547
O                    0    5.429993  -0.277421  -0.308643
C                    0    5.874336  -1.602744  -0.070905
H                    0    5.672564  -1.918361  0.961501
H                    0    5.406995  -2.316855  -0.762179
H                    0    6.952867  -1.592216  -0.239611
O                    0    -3.513984  -1.102640  0.165246
C                    0    -2.482876  1.036993  0.634181
H(Iso=2)                    0    -2.852981  0.972671  1.668897
H                    0    -2.495544  2.097429  0.348291
C                    0    -3.476765  0.273718  -0.250899
H                    0    -3.126004  0.313784  -1.295202
C                    0    -4.857953  -1.596166  0.151405
C                    0    -5.715138  -0.510093  -0.514264
H                    0    -6.746138  -0.500369  -0.146902
H                    0    -5.745684  -0.656771  -1.600430
C                    0    -4.929100  0.762926  -0.171368
H                    0    -5.158358  1.093065  0.850409
H                    0    -5.129867  1.597351  -0.850591
H                    0    -5.184198  -1.783520  1.185335
H                    0    -4.881985  -2.550894  -0.387880

