%nprocshared=4
%mem=8GB
%chk=product-cf-SS-00037.chk
#p opt freq=vcd nosymm b3lyp/6-31G* 

product-cf-SS-00037

0 1
C                    0    1.113042  -0.392842  0.612826
H                    0    1.086794  0.671265  0.840436
C                    0    -0.010829  -1.053157  0.294036
H                    0    0.071189  -2.118598  0.069926
C                    0    -1.376623  -0.518689  0.207681
C                    0    -1.704174  0.831084  0.456617
C                    0    -3.008158  1.287712  0.360222
C                    0    -4.045696  0.408388  0.008297
C                    0    -3.749426  -0.934418  -0.243391
C                    0    -2.428804  -1.376934  -0.141160
H                    0    -0.923042  1.534597  0.729331
H                    0    -3.255086  2.327450  0.552246
H                    0    -4.527250  -1.638330  -0.517034
H                    0    -2.212115  -2.424340  -0.340089
O                    0    -5.293410  0.960168  -0.059919
C                    0    -6.377545  0.118501  -0.415363
H                    0    -6.243241  -0.312469  -1.416642
H                    0    -6.512826  -0.695042  0.310032
H                    0    -7.264880  0.754406  -0.412900
O                    0    3.636692  1.035166  0.132755
C                    0    2.476984  -1.020922  0.670389
H(Iso=2)                    0    2.877700  -0.958676  1.693747
H                    0    2.414935  -2.085758  0.408149
C                    0    3.493648  -0.341794  -0.256289
H                    0    3.110435  -0.375705  -1.289409
C                    0    5.009524  1.436713  0.066607
C                    0    5.770937  0.281773  -0.599932
H                    0    6.809426  0.208854  -0.261940
H                    0    5.779060  0.405157  -1.689388
C                    0    4.911122  -0.927893  -0.208346
H                    0    5.147869  -1.254006  0.813030
H                    0    5.034356  -1.786541  -0.875817
H                    0    5.379879  1.623317  1.085664
H                    0    5.080184  2.376200  -0.494925

